% Model:              Untitled.mph
% Version:            COMSOL 6.1.0.252
% Date:               May 22 2023, 18:04
% Dimension:          3
% Nodes:              3168
% Expressions:        5
% Description:        von Mises stress, Entity index, X-coordinate, Y-coordinate, Z-coordinate
% Length unit:        m
% X                       Y                        Z                        solid.mises (N/m^2)      dom                      X (m)                    Y (m)                    Z (m)
0                         0.10000000000000002      0                        10.00001872133336        1                        0                        0.10000000000000002      0
0.062053502697436404      0.06472036045735934      0                        10.000022171471768       1                        0.0620535026974364       0.06472036045735932      0
0                         0.06205350269743626      0.06472036045735934      9.999984512919383        1                        0                        0.06205350269743626      0.06472036045735932
0                         0                        0                        10.000007288571144       1                        0                        0                        0
0.04026572082373415       0.045813807137298664     0.10473781540395347      10.000013756279314       1                        0.04026572082373415      0.045813807137298664     0.1047378154039535
0                         0                        0.09999999999999998      10.000000941738804       1                        0                        0                        0.09999999999999998
0                         0.07230687138033452      0.14944266381316454      10.000014870182397       1                        0                        0.07230687138033452      0.14944266381316454
0                         0                        0.19999999999999996      9.999986961976722        1                        0                        0                        0.19999999999999996
0.06472053248057413       0                        0.06206940003054591      10.000024371084823       1                        0.06472053248057416      0                        0.062069400030545924
0.09999999999999998       0                        0                        10.000004073651432       1                        0.09999999999999998      0                        0
0.07641915651390142       0.12053513904388088      0.05473781540395346      10.000027499199634       1                        0.07641915651390142      0.12053513904388086      0.054737815403953484
0.08952358331832677       0                        0.14988327543226468      10.000000436944562       1                        0.08952358331832677      0                        0.14988327543226468
0                         0.1498760451532371       0.08956183566962488      10.000022605093186       1                        0                        0.14987604515323708      0.08956183566962485
0                         0.08313273503022969      0.24810613339018672      9.999954086460159        1                        0                        0.08313273503022968      0.2481061333901868
0.049980619803167106      0.1242864835279042       0.20014528679400706      9.999990205252335        1                        0.049980619803167106     0.12428648352790421      0.2001452867940071
0                         0.1600260383767001       0.2012185861434218       9.999955286906083        1                        0                        0.1600260383767001       0.20121858614342172
0.05969551878260006       0.08429948905692443      0.2683872387357322       10.000049605856507       1                        0.05969551878260006      0.08429948905692443      0.2683872387357322
0                         0                        0.29999999999999993      9.999968167098826        1                        0                        0                        0.2999999999999999
0.08233226909461479       0                        0.25541575158112695      10.000006004575686       1                        0.08233226909461479      0                        0.2554157515811269
0.04506208874511742       0.1938434889973622       0.11552697048860841      10.000027724228694       1                        0.04506208874511742      0.19384348899736226      0.11552697048860842
0                         0.22952061558653702      0.15752829557866713      9.999996203398535        1                        0                        0.22952061558653708      0.15752829557866715
0.060139370006042095      0.1974766826495407       0.05045443216666125      9.999980355061135        1                        0.060139370006042095     0.19747668264954077      0.05045443216666124
0                         0.2                      0                        10.000081879018662       1                        0                        0.19999999999999998      0
0.07230687138033452       0.1494426638131644       0                        10.000062281624901       1                        0.07230687138033452      0.14944266381316446      0
0.08313273503022969       0.24810613339018678      0                        9.999969605991888        1                        0.08313273503022968      0.2481061333901868       0
0.19999999999999996       0                        0                        10.000011410379722       1                        0.19999999999999996      0                        0
0.14987604515323696       0.0895618356696248       0                        10.000026927280727       1                        0.149876045153237        0.08956183566962482      0
0.14944587340002755       0                        0.07231280551895573      10.000022061250727       1                        0.14944587340002752      0                        0.07231280551895572
0.09996123960633421       0.08854692867910825      0.19907198744459237      10.000020175981724       1                        0.09996123960633425      0.08854692867910828      0.19907198744459248
0.08053144164746824       0.09162761427459738      0.10947563080790693      10.00000862224997        1                        0.08053144164746827      0.09162761427459735      0.10947563080790697
0.11520374340035258       0.09059472497211109      0.05473781540395346      9.999971501901028        1                        0.11520374340035258      0.09059472497211109      0.054737815403953484
0.13507739258266052       0.14225760048435312      0.05045443216666125      9.999980460459135        1                        0.13507739258266052      0.14225760048435315      0.05045443216666125
0.08053144164746824       0.1401578793646692       0.155646679737276        10.000012120622875       1                        0.08053144164746825      0.14015787936466922      0.15564667973727606
0.15525437834748204       0.060600862925879254     0.11327185333870518      10.000056115151203       1                        0.15525437834748204      0.06060086292587925      0.11327185333870517
0.16270699508107891       0.08525717618794616      0.1872487044764465       10.00008577680317        1                        0.16270699508107891      0.08525717618794616      0.18724870447644648
0.25464259645355536       0.08164883420349867      0                        10.000018781540108       1                        0.2546425964535554       0.08164883420349867      0
0.25623213467532563       0.07112484856468894      0.06219368780702918      10.000002299970204       1                        0.2562321346753257       0.07112484856468894      0.062193687807029184
0.29999999999999993       0                        0                        10.000031871559507       1                        0.2999999999999999       0                        0
0.12027874001208419       0.19495336529908142      0.1009088643333225       10.000000435562473       1                        0.12027874001208425      0.19495336529908147      0.10090886433332254
0.3518792789615612        0.08269845007788412      0                        10.000035018764057       1                        0.35187927896156107      0.0826984500778841       0
0.24886672693028916       0                        0.08451616050430814      10.000038828891034       1                        0.2488667269302892       0                        0.08451616050430812
0.35000000000000003       0                        0.08660254037844396      9.99997121915099         1                        0.35                     0                        0.08660254037844398
0.20139268408351502       0                        0.16015044942468015      10.000034257032738       1                        0.201392684083515        0                        0.1601504494246802
0.15756923147791577       0                        0.2297165444172941       10.000029569058622       1                        0.15756923147791577      0                        0.22971654441729414
0                         0.30000000000000004      0                        9.999979855864238        1                        0                        0.30000000000000004      0
0                         0.25464259645355536      0.0816488342034988       9.999988377263882        1                        0                        0.2546425964535554       0.08164883420349882
0.07237654309816523       0.3444101470069603       0.06125785349374048      9.999983291602497        1                        0.07237654309816526      0.3444101470069603       0.06125785349374048
0.08660254037844389       0.35000000000000003      0                        10.000033149572216       1                        0.08660254037844389      0.35000000000000003      0
0.1667337249029611        0.3004827126867326       0                        10.00000546153597        1                        0.16673372490296104      0.30048271268673254      0
0                         0.4                      0                        10.000003396433216       1                        0                        0.39999999999999997      0
0.17669713810146312       0.051666992233844425     0.2682457311182141       10.00002410668264        1                        0.17669713810146306      0.05166699223384442      0.2682457311182142
0.11939103756520017       0.08546624308361912      0.28866834408127773      9.999999857788238        1                        0.11939103756520011      0.08546624308361912      0.2886683440812777
0.05969551878260006       0.08603439173103157      0.31933417204063885      9.999983725160183        1                        0.05969551878260006      0.08603439173103157      0.31933417204063896
0                         0.08660254037844396      0.35000000000000003      10.000021808337054       1                        0                        0.08660254037844396      0.35000000000000003
0                         0                        0.39999999999999997      9.99998535946811         1                        0                        0                        0.39999999999999997
0.08491560976396272       0                        0.35133581065410546      9.99999974153745         1                        0.08491560976396272      0                        0.3513358106541054
0.16031044798837485       0                        0.3100279948338851       10.00001141597713        1                        0.16031044798837482      0                        0.3100279948338852
0.07368281349100066       0.06264847627088029      0.4215330136563192       10.00002819921137        1                        0.07368281349100064      0.06264847627088031      0.42153301365631907
0                         0.08660254037844396      0.45                     9.999995796349145        1                        0                        0.08660254037844398      0.4500000000000001
0                         0                        0.49999999999999994      10.000003893317796       1                        0                        0                        0.49999999999999994
0                         0.35187927896156124      0.08269845007788412      9.999979917542714        1                        0                        0.35187927896156124      0.08269845007788412
0.0997169133330014        0.28693372122823346      0.08116648194853883      9.999955365025725        1                        0.09971691333300142      0.28693372122823363      0.08116648194853887
0.09012417749023484       0.2378109328414873       0.14149210530759196      9.999956061678358        1                        0.09012417749023484      0.23781093284148727      0.14149210530759196
0.04506208874511742       0.24699274794960546      0.19544833074121376      9.999998549342171        1                        0.04506208874511742      0.24699274794960546      0.1954483307412138
0                         0.2561745630577236       0.24940455617483553      10.000011060899592       1                        0                        0.2561745630577236       0.24940455617483556
0.08053144164746824       0.18868814445474108      0.20181772866664505      10.00002721644379        1                        0.08053144164746823      0.18868814445474116      0.2018177286666451
0.24930319071719964       0                        0.25671638104830036      9.999981192863693        1                        0.24930319071719964      0                        0.25671638104830036
0.07506214016528169       0.15234676034766845      0.27464038548829317      10.000074212368078       1                        0.07506214016528173      0.15234676034766845      0.2746403854882933
0.15012428033056338       0.1379597957923758       0.24879805828985374      10.000032936363114       1                        0.15012428033056346      0.13795979579237583      0.2487980582898537
0                         0.1667337249029611       0.3004827126867326       9.99997504923025         1                        0                        0.16673372490296104      0.30048271268673254
0.1080726624091928        0.12848343894913491      0.3206275543110337       10.000042149497983       1                        0.10807266240919279      0.12848343894913491      0.32062755431103357
0.08660254037844396       0.45                     0                        10.000026068896005       1                        0.08660254037844399      0.4500000000000001       0
0.11927396726522302       0.3976720357075134       0.0469681959778986       10.00002285352524        1                        0.11927396726522306      0.3976720357075134       0.04696819597789861
0                         0.30734990881644575      0.16045425872690763      10.00001166708679        1                        0                        0.30734990881644564      0.1604542587269076
0.1651276619999019        0.4001715863345625       0                        9.999935480291148        1                        0.16512766199990186      0.4001715863345625       0
0.08660254037844396       0                        0.45                     10.000002311829306       1                        0.08660254037844396      0                        0.45000000000000007
0.23520048850252356       0.048365287716412644     0.3182229494350584       10.000051283809883       1                        0.2352004885025236       0.04836528771641265      0.3182229494350584
0.35213206386534873       0.06421112562567312      0.06630286689255378      10.000047731203132       1                        0.35213206386534873      0.06421112562567313      0.0663028668925538
0.39999999999999997       0                        0                        10.000043248503086       1                        0.39999999999999997      0                        0
0.30994294697061836       0.10272364487392457      0.08536298645600045      9.999982586929862        1                        0.30994294697061847      0.10272364487392459      0.08536298645600043
0.20785273987424596       0.1014252800276286       0.07711545057922727      10.000043645842048       1                        0.207852739874246        0.10142528002762854      0.0771154505792273
0.1600260383767001        0.20121858614342178      0                        9.999986170512955        1                        0.16002603837670012      0.20121858614342172      0
0.2694242822496345        0.12973919177174423      0.04106464768095209      10.000019652187175       1                        0.2694242822496345       0.12973919177174423      0.04106464768095209
0.229520615586537         0.15752829557866713      0                        9.999955348717755        1                        0.22952061558653694      0.15752829557866715      0
0.17051842692257227       0.1687336057777327       0.09728147506851861      10.000008149766348       1                        0.17051842692257232      0.16873360577773278      0.09728147506851864
0.15056813155400536       0.19270335690010693      0.15491831841587608      10.000041654627395       1                        0.15056813155400534      0.19270335690010695      0.15491831841587608
0.2644722080706813        0.062444024629975683     0.12250450091661072      10.000014742054553       1                        0.2644722080706812       0.06244402462997571      0.12250450091661068
0.24392661918504543       0.12670978423161236      0.10981022191505543      10.000067431002831       1                        0.24392661918504552      0.1267097842316124       0.10981022191505545
0.16106288329493648       0.12120172585175851      0.15423090115845453      10.00004399679837        1                        0.1610628832949364       0.12120172585175844      0.1542309011584546
0.2254527505558237        0.08196742369678402      0.17542542150830068      10.00001542871666        1                        0.22545275055582356      0.08196742369678402      0.17542542150830076
0.19308382821455145       0.10333398446768885      0.22646346740254308      10.000000731287804       1                        0.1930838282145514       0.10333398446768884      0.22646346740254314
0.3542641277306975        0.12842225125134618      0.046003193406663596     10.000045000048816       1                        0.35426412773069765      0.12842225125134613      0.046003193406663596
0.40911916642904317       0.16608740090951102      0                        10.000084563828583       1                        0.4091191664290431       0.16608740090951102      0
0.45                      0.08660254037844396      0                        10.000011418313655       1                        0.4500000000000001       0.08660254037844399      0
0.30734990881644575       0.16045425872690777      0                        10.000050054768082       1                        0.30734990881644564      0.16045425872690783      0
0.16615954830227378       0.26466858646587527      0.11987250441659161      9.999972248498205        1                        0.1661595483022738       0.26466858646587527      0.1198725044165916
0.24796164290510997       0.3504159778939448       0                        9.999991990357888        1                        0.24796164290511         0.3504159778939448       0
0.18213136727044152       0.33808864348011247      0.08116648194853883      10.000016280383916       1                        0.18213136727044157      0.33808864348011264      0.08116648194853887
0.21116705567999872       0.2570365713203554       0.05993625220829581      9.999988665145981        1                        0.21116705567999883      0.25703657132035546      0.0599362522082958
0.2561745630577236        0.24940455617483562      0                        10.000008986449199       1                        0.2561745630577236       0.24940455617483567      0
0.24972999902251308       0.3167500505652498       0.061477898017412616     9.999982193502174        1                        0.24972999902251308      0.31675005056524974      0.06147789801741264
0.31978116332594825       0.32272544462431724      0                        10.000021084835076       1                        0.31978116332594825      0.3227254446243172       0
0.49999999999999994       0                        0                        10.000055517612587       1                        0.4999999999999999       0                        0
0.4166854834445255        0.06358983471930292      0.07224302281431579      10.000021076622893       1                        0.41668548344452544      0.06358983471930292      0.07224302281431581
0.45                      0                        0.08660254037844396      10.000052548686067       1                        0.45000000000000007      0                        0.08660254037844396
0.2861966876874588        0.058563398793710544     0.1787345381612703       9.999955870154976        1                        0.2861966876874587       0.05856339879371055      0.17873453816127027
0.30095105445625925       0                        0.16993865456297244      10.00001995319504        1                        0.30095105445625936      0                        0.16993865456297244
0.40153596763193944       0                        0.17043786157584323      10.000069139500235       1                        0.40153596763193944      0                        0.17043786157584326
0.35704171404205665       0.05569811318265712      0.13868363414020904      10.000021227309983       1                        0.3570417140420565       0.055698113182657105     0.1386836341402091
0.4149201071192219        0.09982720485076388      0.10472351018433221      10.000012432546947       1                        0.4149201071192221       0.09982720485076385      0.1047235101843322
0.4812389030237022        0.06296854381293272      0.07818317873607779      10.000095928256771       1                        0.4812389030237021       0.06296854381293275      0.07818317873607782
0.5499999999999998        0.08660254037844389      0                        10.000027301284558       1                        0.5499999999999998       0.08660254037844387      0
0.25382776534618656       0.07992995956461536      0.22977258405551276      10.000015288201885       1                        0.2538277653461866       0.0799299595646154       0.22977258405551285
0.2269689487716296        0.09673057543282529      0.27759122426350435      10.000033468671155       1                        0.22696894877162957      0.09673057543282532      0.27759122426350447
0.3145717024778217        0.05652593466154189      0.2330817007084824       10.000004132335363       1                        0.3145717024778217       0.056525934661541884     0.23308170070848233
0.7477297658292923        0.08321528847316188      0                        9.999975287663458        1                        0.7477297658292924       0.08321528847316187      0
0.7                       0                        0                        9.99996521825108         1                        0.7000000000000001       0                        0
0.7999999999999999        0                        0                        9.999965320063142        1                        0.7999999999999999       0                        0
0.7158371667338798        0.05614314261059318      0.07347627404050917      9.999960612672254        1                        0.71583716673388         0.05614314261059317      0.07347627404050919
0.3576071986115353        0                        0.2603155138526844       10.000043509752796       1                        0.3576071986115353       0                        0.26031551385268437
0.24343202823341745       0                        0.3588546746066125       10.000023063135268       1                        0.24343202823341742      0                        0.35885467460661247
0.3165397645799973        0                        0.32913589699030327      10.000011384601141       1                        0.3165397645799973       0                        0.32913589699030327
0.2014300277214593        0.410329986398709        0.05780335537169225      9.999949998449774        1                        0.2014300277214592       0.41032998639870916      0.05780335537169227
0.12014095654416404       0.33845446874701657      0.1018410944680099       9.99994070571538         1                        0.12014095654416404      0.3384544687470167       0.1018410944680099
0.05815054581788655       0.33882029401392066      0.12251570698748096      10.00003403188653        1                        0.05815054581788657      0.33882029401392083      0.12251570698748095
0                         0.5                      0                        10.00006305576928        1                        0                        0.5                      0
0                         0.45                     0.08660254037844396      9.999992057596556        1                        0                        0.4500000000000001       0.08660254037844396
0.16002281290898804       0.46923284559968365      0.05258716691685507      10.000031038461298       1                        0.1600228129089881       0.4692328455996836       0.05258716691685506
0.07342027253054413       0.3951724850804643       0.0939363919557972       10.000012211425208       1                        0.07342027253054416      0.39517248508046454      0.09393639195579723
0.07342027253054413       0.4942328455996836       0.09588843710607711      10.000031012066538       1                        0.07342027253054415      0.49423284559968345      0.0958884371060771
0                         0.5499999999999999       0.08660254037844396      10.000040455185426       1                        0                        0.5499999999999999       0.08660254037844396
0.08660254037844396       0.5499999999999999       0                        10.000046650030765       1                        0.08660254037844398      0.5499999999999999       0
0                         0.6                      0                        9.999999298599532        1                        0                        0.6                      0
0.17320508075688787       0.49999999999999994      0                        10.000053166518947       1                        0.17320508075688787      0.49999999999999994      0
0.19994091713460155       0.08546624308361912      0.3403878055940205       9.999988699862163        1                        0.19994091713460158      0.08546624308361914      0.3403878055940204
0.06076308660355735       0.12529695254176057      0.39306602731263834      9.999981871040802        1                        0.060763086603557344     0.12529695254176063      0.39306602731263846
0                         0.16512766199990198      0.4001715863345624       9.999968256357565        1                        0                        0.165127661999902        0.4001715863345624
0.12152617320711476       0.08546624308361912      0.3859604682907143       10.00001134172563        1                        0.1215261732071147       0.08546624308361914      0.3859604682907142
0.09448251886225503       0.12221929957075936      0.4681870484131688       9.99998880730573         1                        0.09448251886225505      0.12221929957075937      0.4681870484131689
0.056339046231041426      0.1732846736988604       0.47020013468758437      9.999977737941455        1                        0.056339046231041426     0.17328467369886044      0.4702001346875841
0                         0.1732050807568877       0.5                      9.999984196961819        1                        0                        0.1732050807568877       0.5
0.1643342446622397        0                        0.4060982878089835       9.999978127449552        1                        0.16433424466223967      0                        0.4060982878089836
0.06631299574673429       0.07887823291055109      0.5080869810693766       9.999972482243512        1                        0.06631299574673431      0.07887823291055109      0.5080869810693768
0                         0.08660254037844389      0.5499999999999998       10.000016894373925       1                        0                        0.08660254037844387      0.5499999999999998
0.13262599149346857       0.07115392544265832      0.46617396213875334      9.999996633833529        1                        0.13262599149346863      0.07115392544265832      0.4661739621387534
0                         0                        0.5999999999999998       9.999947756531059        1                        0                        0                        0.5999999999999998
0.08660254037844389       0                        0.5499999999999998       10.000015442275968       1                        0.08660254037844387      0                        0.5499999999999998
0                         0.40911916642904333      0.16608740090951102      9.999993482658708        1                        0                        0.4091191664290434       0.16608740090951102
0.05016304072422918       0.3110466377967304       0.25552047415040413      10.000011059380856       1                        0.050163040724229196     0.3110466377967303       0.2555204741504041
0                         0.3641535084893458       0.2545263482941881       9.999968968879463        1                        0                        0.36415350848934575      0.254526348294188
0                         0.3197811633259483       0.32272544462431724      10.000014713630089       1                        0                        0.31978116332594825      0.3227254446243172
0.06419397187106098       0.26024685116645224      0.2958444656940454       9.999995620707953        1                        0.06419397187106098      0.2602468511664523       0.2958444656940455
0                         0.24796164290510989      0.3504159778939448       10.000012850635736       1                        0                        0.24796164290510983      0.35041597789394474
0.1163010916357731        0.32576130906628015      0.16233296389707771      9.999955493588375        1                        0.11630109163577315      0.32576130906628015      0.16233296389707774
0.18265651023684673       0.33048956947162605      0.15155933537244717      10.000014969594874       1                        0.18265651023684673      0.3304895694716261       0.15155933537244726
0.13324281487536607       0.2613041767849951       0.18819355221160589      10.000001406289766       1                        0.13324281487536602      0.2613041767849953       0.18819355221160597
0.10032608144845831       0.25793976710411504      0.2565146000066202       9.999986495903263        1                        0.10032608144845831      0.2579397671041149       0.2565146000066202
0.12522518088951087       0.19794978144824543      0.25265632914823694      9.999979369553424        1                        0.12522518088951087      0.1979497814482455       0.25265632914823694
0.18085752309592654       0.1904533485011325       0.2089277724984297       10.000007603712385       1                        0.18085752309592654      0.19045334850113257      0.20892777249842973
0.21684528273879078       0.15636332239952214      0.3044288269951116       10.000026155263498       1                        0.21684528273879078      0.1563633223995221       0.3044288269951115
0.29689026201089663       0.07089707931590307      0.30803630719954894      10.000010006999759       1                        0.2968902620108968       0.0708970793159031       0.30803630719954894
0.13045031617414063       0.3150362427980066       0.2537001109599205       9.99994144008853         1                        0.13045031617414068      0.3150362427980066       0.25370011095992057
0.1916543365668817        0.29509727031106625      0.20759198960542602      10.000005869532771       1                        0.1916543365668817       0.2950972703110662       0.20759198960542594
0.07822490301789277       0.20944706453617407      0.3361684572376866       10.0000019487072         1                        0.07822490301789278      0.20944706453617395      0.3361684572376866
0.15644980603578554       0.17093248616723825      0.3219209365814285       9.99998337144345         1                        0.15644980603578554      0.17093248616723822      0.3219209365814286
0.06353995036993855       0.1889682238555223       0.4045607273201903       9.999970824109772        1                        0.06353995036993855      0.18896822385552225      0.40456072732019016
0.11037537743563783       0.15092385279498402      0.38051391184310124      9.999961528905766        1                        0.1103753774356378       0.15092385279498405      0.3805139118431012
0.12652408839203835       0.5393877897579176       0.05508115433744866      10.000023668936532       1                        0.1265240883920384       0.5393877897579175       0.055081154337448666
0.1676093250176976        0.5905529039551451       0                        10.0000132470784         1                        0.16760932501769757      0.5905529039551451       0
0.14684054506108826       0.43846569119936735      0.10517433383371019      9.99999133031184         1                        0.14684054506108832      0.4384656911993671       0.10517433383371017
0.1647485276489675        0.3844776303354967       0.12836683460307866      10.00000543384426        1                        0.1647485276489675       0.38447763033549687      0.12836683460307868
0.07599308608527812       0.3594464468025418       0.22262760978110563      9.99999940075046         1                        0.07599308608527816      0.3594464468025418       0.2226276097811057
0.6499999999999999        0.08660254037844403      0                        9.999968521559873        1                        0.65                     0.08660254037844405      0
0.6699212553854942        0.07137284149451863      0.05786949162409073      9.999975845467814        1                        0.6699212553854944       0.07137284149451864      0.05786949162409073
0.5999999999999998        0                        0                        10.000007900924475       1                        0.5999999999999998       0                        0
0.5898892705823614        0.17039418126606962      0                        10.000033844427572       1                        0.5898892705823614       0.17039418126606962      0
0.6160688405894443        0.15587573161764026      0.06787473212513868      10.000064184470093       1                        0.6160688405894442       0.15587573161764026      0.06787473212513871
0.6003008764044383        0.08325501522300784      0.09815491571975979      10.000029758860476       1                        0.6003008764044381       0.08325501522300784      0.0981549157197598
0.5407698897140703        0.07311177951797028      0.08816904722791875      10.000014885262619       1                        0.5407698897140704       0.0731117795179703       0.0881690472279188
0.5499999999999998        0                        0.08660254037844389      10.000029657596619       1                        0.5499999999999998       0                        0.08660254037844387
0.4936927484720278        0                        0.16670738137441413      10.000021629259805       1                        0.49369274847202776      0                        0.16670738137441418
0.24766437085091325       0.4450037808034145       0                        10.000021632001259       1                        0.24766437085091328      0.4450037808034146       0
0.32098104180727244       0.40522377882055666      0                        9.999974608559016        1                        0.32098104180727244      0.40522377882055677      0
0.2882929423650274        0.3764635298101442       0.06301954382652943      9.999981831671526        1                        0.28829294236502734      0.37646352981014436      0.06301954382652945
0.8911274520705925        0.0463791353978631       0.041980300981040115     9.999955570059926        1                        0.8911274520705921       0.0463791353978631       0.041980300981040115
0.8999999999999999        0                        0                        9.999980535642548        1                        0.9                      0                        0
0.9286167337399036        0.0636248475028377       0                        10.0000281064923         1                        0.9286167337399036       0.0636248475028377       0
0.9345040655819341        0                        0.07546258748298343      9.999995351537011        1                        0.9345040655819339       0                        0.07546258748298341
1                         0                        0                        9.999991882428883        1                        1                        0                        0
0.8466545651255893        0.0707415681900018       0                        9.999947073365776        1                        0.8466545651255893       0.07074156819000178      0
0.6944439057890404        0.16693164834079718      0                        10.000001833135254       1                        0.6944439057890401       0.16693164834079713      0
0.6423195402199108        0                        0.08396194443908733      10.000006413772562       1                        0.6423195402199109       0                        0.08396194443908733
0.5842316449196977        0                        0.16643856133396695      9.999973422622613        1                        0.5842316449196976       0                        0.16643856133396703
0.6898425107709886        0.05614314261059318      0.11573898324818147      10.00000658763113        1                        0.6898425107709886       0.05614314261059317      0.11573898324818145
0.7366852452548498        0                        0.07907781595587957      9.999975605511127        1                        0.7366852452548498       0                        0.07907781595587958
0.7458294872719373        0.05854449482745029      0.13913307565036834      9.999895575668011        1                        0.7458294872719372       0.05854449482745029      0.13913307565036834
0.8463056779311623        0                        0.09230786566229326      10.000000560834012       1                        0.8463056779311625       0                        0.09230786566229329
0.16740081190859557       0                        0.5012693532817646       10.000043428173269       1                        0.1674008119085956       0                        0.5012693532817646
0                         0.08118603997083923      0.6436347730524316       9.999976629818207        1                        0                        0.08118603997083924      0.6436347730524316
0.07705344258885062       0.05307393721074606      0.6210227989823401       10.0000148517953         1                        0.07705344258885065      0.053073937210746054     0.62102279898234
0.08660254037844396       0                        0.6499999999999999       10.000009277797925       1                        0.08660254037844396      0                        0.65
0                         0                        0.7                      9.999994063863035        1                        0                        0                        0.7000000000000001
0.16722082169089916       0                        0.5988297394966787       10.000013100270236       1                        0.16722082169089922      0                        0.5988297394966786
0.2628641670054615        0.0681360870816743       0.3807816612175722       10.00005950260926        1                        0.2628641670054615       0.0681360870816743       0.3807816612175721
0.22554602583375977       0.09896497253844719      0.4278062626317719       9.999981958549098        1                        0.22554602583375968      0.09896497253844717      0.42780626263177196
0.24739795811236356       0                        0.45279576439497227      9.999997272699158        1                        0.24739795811236356      0                        0.45279576439497227
0.5124778060474044        0.12593708762586545      0.06976381709371161      10.000001831960676       1                        0.5124778060474041       0.12593708762586553      0.06976381709371161
0.498968131564312         0.16861916002872307      0                        10.000017211154132       1                        0.498968131564312        0.16861916002872307      0
0.5259874805304968        0.08325501522300784      0.13952763418742317      10.00000554149589        1                        0.5259874805304965       0.08325501522300784      0.13952763418742317
0.5582822125889658        0.16651003044601567      0.11234788700043227      10.000101790693286       1                        0.5582822125889657       0.16651003044601567      0.11234788700043227
0.5601862977869959        0.18369741423818434      0.06102907353437971      10.000028229487302       1                        0.560186297786996        0.18369741423818428      0.06102907353437971
0.5043037549845476        0.21151909685872844      0.054183414943620736     10.000004740484083       1                        0.5043037549845478       0.2115190968587284       0.05418341494362073
0.449710989365567         0.259071907133149        0                        10.000007430047635       1                        0.44971098936556697      0.25907190713314904      0
0.5470604911704012        0.2578030299924962       0                        10.000041619593503       1                        0.5470604911704012       0.25780302999249616      0
0.23985472487212617       0.11224970474059823      0.34260524410634186      10.00006947182492        1                        0.23985472487212614      0.11224970474059819      0.342605244106342
0.3542753492429957        0.12428238143783296      0.1211077139552347       9.999988599295172        1                        0.3542753492429957       0.12428238143783292      0.12110771395523474
0.3048640576740564        0.11230073972678004      0.13878174090073678      9.99998294473769         1                        0.30486405767405633      0.11230073972678006      0.13878174090073678
0.3008269346970613        0.17464750286007383      0.0912771349263768       10.00005652874307        1                        0.3008269346970612       0.17464750286007383      0.09127713492637686
0.3641535084893455        0.25452634829418824      0                        10.000005358125732       1                        0.36415350848934563      0.25452634829418835      0
0.23106139942904164       0.19996587364109203      0.07928926344232225      10.000046819881739       1                        0.2310613994290416       0.19996587364109197      0.07928926344232229
0.2059594612624841        0.1952096110711123       0.14410851797037597      10.000020551809577       1                        0.20595946126248418      0.19520961107111223      0.14410851797037602
0.26750714838975354       0.13073114148326423      0.1616147414253545       10.000005839560925       1                        0.26750714838975365      0.13073114148326417      0.16161474142535456
0.23260218327154625       0.24240345170351701      0.15857852688464444      10.000031466081385       1                        0.2326021832715463       0.24240345170351701      0.15857852688464438
0.29837784588044586       0.24846489999885263      0.07928926344232225      10.000057751327954       1                        0.2983778458804459       0.24846489999885263      0.07928926344232227
0.2528615400166295        0.1609756453714574       0.21976963567370406      10.000007669118528       1                        0.25286154001662964      0.16097564537145734      0.21976963567370417
0.32243515670120987       0.11496128371723915      0.20569065173379913      9.999971407660597        1                        0.32243515670120987      0.11496128371723914      0.2056906517337991
0.40317998293270046       0.21660897977897858      0.046003193406663596     10.000018192593481       1                        0.40317998293270035      0.21660897977897867      0.046003193406663596
0.4090500450259612        0.1582180923148712       0.07536335179549793      10.0000103235301         1                        0.4090500450259611       0.15821809231487113      0.07536335179549793
0.35664897649983385       0.1741460524248082       0.09200638681332719      10.000062693506509       1                        0.3566489764998338       0.1741460524248083       0.09200638681332719
0.4553537667930838        0.3006999720323005       0.052192886387025364     10.000023426651989       1                        0.455353766793084        0.30069997203230064      0.05219288638702536
0.40014162740534065       0.35047070288865484      0                        9.999987427800615        1                        0.40014162740534065      0.35047070288865473      0
0.49770909353128184       0.333868238334181        0                        9.999991262774536        1                        0.4977090935312819       0.33386823833418106      0
0.4062718457585416        0.34552269458926615      0.0720152022476059       10.000070207660144       1                        0.40627184575854164      0.34552269458926604      0.07201520224760591
0.2546742881311317        0.3594797822645845       0.12895775900611808      9.999973793969685        1                        0.25467428813113185      0.35947978226458427      0.12895775900611814
0.3796871950505233        0.2953964684651523       0.09183751810818643      9.99999378185518         1                        0.3796871950505232       0.2953964684651523       0.09183751810818647
0.31470859703651816       0.30607325951520103      0.07665770806279949      10.000021580381725       1                        0.3147085970365182       0.306073259515201        0.07665770806279949
0.34068947115262505       0.3659068513130134       0.06983862594466446      10.00002893146198        1                        0.34068947115262493      0.36590685131301354      0.06983862594466446
0.27161618281924677       0.2984711780663136       0.14230880726885167      9.999995252297246        1                        0.27161618281924677      0.2984711780663137       0.14230880726885167
0.350225537872899         0.2372843193225101       0.11893389516348332      10.000028404840018       1                        0.350225537872899        0.2372843193225102       0.11893389516348338
0.43676648135523577       0.05652593466154189      0.18807720087153929      10.000084991937694       1                        0.4367664813552357       0.056525934661541884     0.18807720087153934
0.37566909191652875       0.05652593466154189      0.21057945079001084      10.000049377296655       1                        0.3756690919165288       0.056525934661541884     0.21057945079001075
0.4478543326732018        0                        0.2610293511527929       9.99999275682073         1                        0.4478543326732016       0                        0.26102935115279285
0.3798402142384438        0.11305186932308378      0.20944702036866442      10.000023110219644       1                        0.37984021423844366      0.11305186932308378      0.20944702036866442
0.40156315441703694       0.1452332957752436       0.14770302971034707      10.000035220033418       1                        0.40156315441703694      0.1452332957752436       0.14770302971034704
0.46227974276200257       0.17712311926974886      0.10654517003578681      9.999957861754984        1                        0.4622797427620025       0.17712311926974877      0.10654517003578685
0.469412301372431         0.1144996659736229       0.1673099033926788       10.000055241773149       1                        0.4694123013724311       0.11449966597362286      0.1673099033926788
0.5019254219456318        0.06962683374443647      0.20087517727893262      10.000006470106479       1                        0.5019254219456319       0.06962683374443648      0.2008751772789327
0.277240759441796         0.14179415863180608      0.2869367174087946       10.000003356433579       1                        0.2772407594417958       0.141794158631806        0.2869367174087945
0.3480012777315792        0.09926215686224951      0.2706539511177503       10.00001196560101        1                        0.34800127773157913      0.09926215686224953      0.2706539511177502
0.83987472412382          0.07445070670315969      0.058948984012324804     9.999987173034048        1                        0.8398747241238204       0.07445070670315969      0.05894898401232481
0.7926698120489006        0.15460880754338377      0                        9.99999365051859         1                        0.7926698120489009       0.15460880754338377      0
0.6949890882129097        0.11228628522118636      0.06787473212513868      9.999993697875533        1                        0.6949890882129101       0.11228628522118635      0.06787473212513871
0.7886219961770475        0.10252227800845629      0.07591766704360949      9.999949848733365        1                        0.788621996177048        0.10252227800845627      0.07591766704360949
0.7812764374387812        0.1577801762097031       0.05957613337359631      9.999940307172057        1                        0.781276437438781        0.1577801762097031       0.059576133373596324
0.5444120471521537        0                        0.25883808314978807      9.999983851512669        1                        0.5444120471521537       0                        0.2588380831497881
0.3670598049175331        0.05212317457243944      0.3572060849407421       9.999989424431083        1                        0.36705980491753293      0.05212317457243945      0.3572060849407421
0.40064622148296336       0                        0.3528892464460698       9.999941501645662        1                        0.4006462214829635       0                        0.3528892464460699
0.4071553019916621        0.06669853965795154      0.30579797310264206      10.000014640758742       1                        0.40715530199166217      0.06669853965795156      0.30579797310264206
0.3940405533677561        0.11018307183679335      0.3469312925464964       9.999944281000818        1                        0.3940405533677561       0.11018307183679334      0.34693129254649635
0.4691015968262667        0.07083765854921566      0.34254171064420114      9.999987449857247        1                        0.46910159682626673      0.07083765854921566      0.3425417106442011
0.5006359005097214        0                        0.335022092768057        10.000013871423132       1                        0.5006359005097212       0                        0.33502209276805706
0.32068054519196504       0                        0.4112933565278264       10.000044145908408       1                        0.3206805451919651       0                        0.41129335652782645
0.4115742724431789        0                        0.45205015777963187      10.000020916479349       1                        0.41157427244317896      0                        0.45205015777963187
0.47121917940220653       0                        0.4096010427057176       10.000012905974641       1                        0.47121917940220653      0                        0.40960104270571757
0.2377323934430166        0.42048838646285547      0.11560671074338455      9.999977409294564        1                        0.23773239344301653      0.4204883864628553       0.11560671074338456
0.2811635143811084        0.4567053383625852       0.05780335537169225      10.000017622081263       1                        0.2811635143811086       0.45670533836258537      0.05780335537169226
0.21362909838367466       0.4992867057404321       0.06301954382652943      10.000017455930744       1                        0.21362909838367464      0.4992867057404323       0.06301954382652947
0.2509993757763738        0.5425953623976963       0                        10.000059900825665       1                        0.2509993757763738       0.5425953623976963       0
0.06680919193025416       0.5906800602211837       0.07208884106824305      10.000044619880782       1                        0.06680919193025418      0.5906800602211836       0.07208884106824304
0                         0.65                     0.08660254037844396      10.000041640777008       1                        0                        0.6500000000000001       0.08660254037844399
0                         0.4989681315643121       0.168619160028723        9.999981298519899        1                        0                        0.498968131564312        0.16861916002872293
0                         0.24766437085091325      0.4450037808034143       10.00002060256211        1                        0                        0.2476643708509133       0.4450037808034144
0.12242725987902384       0.4012605525652262       0.18634081578224906      9.999971949694404        1                        0.12242725987902378      0.4012605525652262       0.18634081578224918
0.06121362993951192       0.42765210078095195      0.17684704812568305      10.000051394776877       1                        0.061213629939511904     0.4276521007809518       0.176847048125683
0.16644563640563267       0.5287755795158353       0.11016230867489726      10.00001209051382        1                        0.16644563640563262      0.5287755795158356       0.11016230867489724
0.10098685032640933       0.4854963208319279       0.15311855238674874      10.000014151301643       1                        0.10098685032640936      0.4854963208319278       0.1531185523867488
0.10451769216135295       0.5877573019322261       0.13680091861069535      10.000024007923189       1                        0.10451769216135294      0.5877573019322263       0.1368009186106954
0                         0.5898892705823616       0.17039418126606984      10.000046218402662       1                        0                        0.5898892705823615       0.1703941812660698
0.05225884608067645       0.5433627167482691       0.1527100393197092       10.00004201258529        1                        0.05225884608067644      0.5433627167482691       0.1527100393197092
0.24485451975804767       0.3484774561337746       0.2053283510953811       10.000024299838488       1                        0.2448545197580476       0.3484774561337745       0.205328351095381
0.19915347217141977       0.3963105524773769       0.18324616632830268      10.000019458179423       1                        0.1991534721714197       0.39631055247737706      0.18324616632830268
0.13822678772788807       0.6198795581641218       0.06535814543397635      10.000032706661488       1                        0.1382267877278881       0.619879558164122        0.06535814543397638
0                         0.7                      0                        10.000005984887634       1                        0                        0.7000000000000001       0
0.08118603997083938       0.6436347730524318       0                        10.000042965791714       1                        0.08118603997083937      0.6436347730524317       0
0.08903087100012076       0.6569972963496636       0.1031766596138862       9.999986089613952        1                        0.0890308710001208       0.6569972963496636       0.10317665961388617
0.16532131092416222       0.6838525732016801       0                        10.000057481318242       1                        0.16532131092416222      0.6838525732016799       0
0.21421388234621447       0.5825232132808837       0.05488468401863307      10.000026258723473       1                        0.2142138823462145       0.5825232132808834       0.05488468401863306
0.24680708295716705       0.6295068357985628       0                        10.000022489185339       1                        0.246807082957167        0.6295068357985628       0
0.1982505175189897        0.6541131509992928       0.06159348501164354      10.000019904854534       1                        0.1982505175189897       0.6541131509992931       0.06159348501164354
0.06631681413631975       0.252639495169284        0.4160554273277423       9.999938541929101        1                        0.06631681413631975      0.25263949516928386      0.4160554273277425
0.18305325077103987       0.18153842943466555      0.3991578563030729       10.00001796369464        1                        0.18305325077103984      0.18153842943466544      0.39915785630307304
0.11267809246208285       0.17336426664083318      0.44040026937516874      10.000004758886808       1                        0.11267809246208284      0.17336426664083324      0.4404002693751686
0.17014300746378533       0.13454193525977634      0.48146590639784226      10.00002935388457        1                        0.1701430074637854       0.13454193525977634      0.4814659063978422
0.103830011717051         0.14226624272766916      0.5233789253284655       10.00004249036078        1                        0.103830011717051        0.14226624272766916      0.5233789253284655
0.0519150058585255        0.21723368547746746      0.4974200352298116       9.999967232521097        1                        0.05191500585852551      0.21723368547746744      0.49742003522981176
0                         0.25099937577637355      0.5425953623976962       9.999985692527526        1                        0                        0.25099937577637366      0.5425953623976962
0.06750434479925728       0.10614787442149212      0.5920455979646805       10.000040182169252       1                        0.06750434479925732      0.10614787442149211      0.5920455979646807
0.0519150058585255        0.15493778387268323      0.5569659146418052       10.000011881293291       1                        0.05191500585852551      0.1549377838726832       0.5569659146418053
0                         0.16760932501769737      0.590552903955145        10.000003304179168       1                        0                        0.16760932501769735      0.5905529039551449
0.2358954336109243        0.15010272372808756      0.48258812736109447      9.999997588811814        1                        0.2358954336109243       0.15010272372808758      0.48258812736109447
0.2241235186467822        0.05684160780169746      0.4977853381842786       9.999981160832695        1                        0.2241235186467821       0.05684160780169749      0.4977853381842788
0.2480934401685009        0                        0.5466019974475375       9.999988264952307        1                        0.24809344016850096      0                        0.5466019974475376
0.3257189140936728        0                        0.4997941784311178       9.999960447814527        1                        0.3257189140936729       0                        0.4997941784311177
0.14372580977982244       0.05684160780169746      0.5463874559867924       10.000012335972212       1                        0.14372580977982255      0.056841607801697495     0.5463874559867924
0.20084907918120093       0.11368321560339498      0.542774911973585        10.000011620811765       1                        0.20084907918120096      0.11368321560339495      0.542774911973585
0.05075020998571629       0.3092996842426173       0.36273411264566         9.999948525612927        1                        0.0507502099857163       0.3092996842426174       0.3627341126456598
0.07629458204159813       0.39578798085002187      0.2964428927310605       9.99997892378106         1                        0.07629458204159813      0.3957879808500219       0.2964428927310605
0.04814891841934278       0.40524281716185917      0.24422991772360908      10.00000476203978        1                        0.048148918419342775     0.4052428171618593       0.244229917723609
0                         0.44971098936556725      0.2590719071331491       9.999999862543483        1                        0                        0.44971098936556714      0.2590719071331491
0                         0.32098104180727244      0.4052237788205569       9.999986044626015        1                        0                        0.32098104180727244      0.4052237788205569
0                         0.4001416274053407       0.350470702888655        10.000027938959382       1                        0                        0.4001416274053407       0.35047070288865506
0.16664289558477804       0.2586597953190806       0.32536585884523755      9.999997961004937        1                        0.16664289558477802      0.2586597953190806       0.32536585884523755
0.10150041997143258       0.2976183266779621       0.3202444464707632       9.999966081657924        1                        0.10150041997143261      0.29761832667796206      0.3202444464707632
0.1605745508998229        0.3721327184918982       0.2508856219132208       9.999989012357819        1                        0.160574550899823        0.37213271849189816      0.2508856219132208
0.2620580188543083        0.2734977842702388       0.2227890414142088       9.99997020877747         1                        0.26205801885430824      0.2734977842702388       0.22278904141420872
0.20065216289691662       0.25970497115050645      0.26362464383840484      9.999952572281641        1                        0.20065216289691656      0.25970497115050656      0.26362464383840484
0.2389464611693563        0.2007495648911563       0.2752806806235997       9.99997999950961         1                        0.23894646116935633      0.20074956489115622      0.2752806806235997
0.253428409079997         0.18971259222849796      0.357915443230977        10.000014532085368       1                        0.253428409079997        0.18971259222849798      0.35791544323097724
0.33347338835210283       0.10424634914487882      0.36152292343541437      9.999969739274052        1                        0.333473388352103        0.10424634914487879      0.3615229234354143
0.28229630577750553       0.13627217416334866      0.4027086478285318       10.000037549754703       1                        0.28229630577750553      0.13627217416334864      0.4027086478285318
0.1525891640831962        0.34186497233447644      0.3338138783289719       9.999977048464082        1                        0.1525891640831962       0.3418649723344763       0.3338138783289717
0.12123660486017082       0.40198535349854103      0.3363522598207595       10.000053530257333       1                        0.1212366048601708       0.40198535349854114      0.3363522598207594
0.22466797278848993       0.32327326844842447      0.27618497511032464      9.999960855880294        1                        0.22466797278848993      0.3232732684484246       0.27618497511032464
0.2738517488343814        0.18988226709336736      0.4284436357578896       9.999988628443939        1                        0.2738517488343814       0.18988226709336734      0.4284436357578896
0.21490934346068402       0.29051308950043986      0.3441357714442764       9.999989087477422        1                        0.214909343460684        0.2905130895004398       0.3441357714442763
0.1326336282726395        0.2576146194876548       0.3871070738520703       9.999977307356986        1                        0.1326336282726395       0.25761461948765496      0.3871070738520702
0.1026747584944068        0.33729688625180915      0.38397429293490626      9.999974116712501        1                        0.10267475849440678      0.33729688625180915      0.38397429293490615
0.1089178235589773        0.31111875490485746      0.4490958881767481       10.0000113701155         1                        0.10891782355897733      0.3111187549048574       0.44909588817674806
0.18526369598463735       0.6180942757018362       0.11382093548015762      10.000018529687054       1                        0.1852636959846374       0.6180942757018358       0.11382093548015765
0.18049821788248657       0.48242859596117366      0.15032915820807938      9.999997801809691        1                        0.18049821788248663      0.48242859596117377      0.15032915820807932
0.14128718510822733       0.4411957024161363       0.26691632599880494      9.999986211491306        1                        0.14128718510822727      0.4411957024161363       0.26691632599880494
0.046728656606133574      0.8883640902871769       0.07257138972458889      9.999996713427716        1                        0.046728656606133574     0.8883640902871766       0.07257138972458892
0                         0.9286167337399037       0.06362484750283763      9.999956222301279        1                        0                        0.9286167337399037       0.06362484750283763
0                         0.9                      0                        10.000030406030854       1                        0                        0.9                      0
0                         0.8466545651255893       0.07074156819000166      9.999990912733752        1                        0                        0.8466545651255895       0.07074156819000166
0.6616858793456998        0.21082494175215488      0.06345609508357831      9.999999750165474        1                        0.6616858793457001       0.21082494175215497      0.06345609508357831
0.5879941720363803        0.2562606325780044       0.06345609508357831      9.99998438605242         1                        0.58799417203638         0.2562606325780044       0.06345609508357831
0.6343532690544487        0.252677381127515        0                        10.000015485010207       1                        0.6343532690544488       0.25267738112751503      0
0.6748421565396813        0.261987889949711        0.054706479412097844     10.000032174743945       1                        0.6748421565396812       0.2619878899497109       0.05470647941209784
0.6196654569237169        0.18271764981552532      0.12183935710457464      10.000043427286105       1                        0.6196654569237167       0.18271764981552527      0.12183935710457465
0.6422484105965273        0.14135728196921085      0.13574946425027737      9.99999788051377         1                        0.6422484105965273       0.14135728196921085      0.13574946425027742
0.5670843625360279        0.082727732827331        0.21367315368632595      10.000025151714867       1                        0.5670843625360277       0.08272773282733102      0.21367315368632592
0.5800640419530306        0.12584608214875695      0.1418870528385506       10.000095051794135       1                        0.5800640419530309       0.12584608214875695      0.14188705283855058
0.5836926194702331        0.08299137402516944      0.15591403470304285      9.999979319250407        1                        0.583692619470233        0.08299137402516947      0.15591403470304283
0.5969058677378366        0.35342983303172454      0                        10.000059496638697       1                        0.5969058677378366       0.35342983303172465      0
0.48443927609595333       0.3641252749478349       0.06146556652698294      10.000022446119662       1                        0.48443927609595333      0.3641252749478348       0.061465566526982957
0.4662238276572467        0.40757130345721365      0                        9.99999254250054         1                        0.4662238276572467       0.4075713034572136       0
0.4328564964665598        0.39564892071338004      0.052192886387025364     10.000048236578767       1                        0.43285649646655977      0.39564892071338         0.05219288638702536
0.30627185506892957       0.6213256440833693       0.04674982421073665      9.999984337261852        1                        0.3062718550689294       0.621325644083369        0.046749824210736673
0.3261321423552967        0.6753126636003086       0                        9.999983912449649        1                        0.3261321423552967       0.6753126636003087       0
0.3449599467988579        0.5922376544343583       0                        9.999965872147452        1                        0.3449599467988579       0.5922376544343583       0
0.2540531160104615        0.4985734114808643       0.1260390876530589       9.999984076903608        1                        0.2540531160104615       0.49857341148086415      0.12603908765305893
0.20010330922703096       0.5727384842776416       0.15531713304926645      10.000007750231799       1                        0.20010330922703096      0.5727384842776415       0.15531713304926645
0.24741962484378288       0.4375199235134438       0.18384244302475114      9.999955796193595        1                        0.2474196248437828       0.43751992351344365      0.18384244302475108
0.32459463531920024       0.492922290262315        0                        10.00000823915518        1                        0.32459463531920024      0.4929222902623149       0
0.404716448712519         0.44896980449530804      0                        10.000008563194159       1                        0.40471644871251916      0.44896980449530793      0
0.36667034526873193       0.4257404431108258       0.06301954382652943      10.000006359231875       1                        0.36667034526873193      0.42574044311082565      0.06301954382652947
0.3286242418249449        0.40251108172634353      0.1260390876530589       9.999999222460815        1                        0.3286242418249448       0.40251108172634353      0.12603908765305893
0.3412477793725322        0.4544041312938387       0.1120208106930177       10.00001980235191        1                        0.3412477793725322       0.4544041312938385       0.11202081069301767
0.44113442603087827       0.4628084619773615       0.057053931083779666     9.999999251134982        1                        0.4411344260308781       0.4628084619773615       0.05705393108377966
0.5279008779266473        0.4098887687729702       0                        10.000101746286294       1                        0.5279008779266474       0.4098887687729702       0
0.49484826897573114       0.493758891069418        0                        9.999983460879701        1                        0.49484826897573103      0.49375889106941806      0
0.4000268573303984        0.5217547855891003       0                        10.00001524793647        1                        0.4000268573303983       0.5217547855891002       0
0.7487396348868129        0.2570646112676792       0                        10.000059797976858       1                        0.7487396348868134       0.25706461126767916      0
0.6807117250667785        0.32980748237908303      0                        10.000056244951368       1                        0.6807117250667786       0.32980748237908303      0
0.8822549041411851        0.09275827079572625      0.08396060196208029      10.00003609022188        1                        0.8822549041411848       0.09275827079572624      0.08396060196208027
0.9246448443379132        0.11757957153153167      0.05949807926936647      9.99997559948699         1                        0.9246448443379126       0.11757957153153166      0.05949807926936646
0.9081622366052337        0.15151907127653275      0                        9.999998217838238        1                        0.9081622366052339       0.15151907127653272      0
0.9271149337889162        0                        0.1517039431076764       9.999987071732425        1                        0.9271149337889161       0                        0.15170394310767638
0.9411274520705926        0.08364007178653056      0.11899615853873288      10.000012934940058       1                        0.9411274520705925       0.0836400717865306       0.1189961585387329
0.9999999999999998        0                        0.09999999999999998      10.00002717932558        1                        0.9999999999999999       0                        0.09999999999999998
1                         0.06595238113486332      0.07597079906833926      10.000052023429724       1                        1                        0.06595238113486333      0.07597079906833926
0.9999999999999998        0.09999999999999998      0                        10.0000448577734         1                        0.9999999999999999       0.09999999999999998      0
0.8479032105972099        0.1492284135276826       0.08155704697817147      9.99996343280426         1                        0.8479032105972096       0.14922841352768262      0.08155704697817148
0.8390024394294701        0.23190118198925497      0                        10.000014606997143       1                        0.8390024394294702       0.23190118198925494      0
0.6771753340460321        0.2046149628381076       0.12657670319926048      10.000032149425476       1                        0.6771753340460319       0.20461496283810762      0.1265767031992605
0.8135515170532346        0.20569855625963895      0.07915349199426265      9.999985451653858        1                        0.8135515170532346       0.20569855625963904      0.07915349199426266
0.731088594834075         0.19967035766280467      0.07734942431451043      9.999993766730311        1                        0.731088594834075        0.1996703576628046       0.07734942431451046
0.7262146086040885        0.11620453349240609      0.15915104150012252      9.999991605411692        1                        0.7262146086040885       0.11620453349240603      0.15915104150012255
0.6511461134713435        0.08220045043165415      0.19414950418604443      9.99997937544179         1                        0.6511461134713433       0.08220045043165419      0.1941495041860444
0.8018164637728861        0.0609458470443074       0.1625271680525552       9.999969851138454        1                        0.8018164637728861       0.060945847044307395     0.16252716805255527
0.8815040041656914        0.0609458470443074       0.15981257351591852      9.999975038001581        1                        0.8815040041656914       0.060945847044307395     0.15981257351591852
0.5425685622212667        0.044644250664076686     0.3006502232917125       10.000013969791281       1                        0.5425685622212668       0.0446442506640767       0.3006502232917124
0.6289815980791371        0                        0.25020068343660795      10.000011668439507       1                        0.6289815980791371       0                        0.25020068343660806
0.731788981040861         0.044287595134178355     0.1865486838717131       9.999965170354113        1                        0.731788981040861        0.044287595134178355     0.18654868387171317
0.6846959333290675        0                        0.16360323437122432      9.999986894932393        1                        0.6846959333290676       0                        0.16360323437122434
0.6797634484653606        0.05723762328615674      0.2604834323940612       9.999970226056728        1                        0.6797634484653604       0.05723762328615675      0.2604834323940612
0.7677398530033055        0                        0.1571331321809499       9.999993152110596        1                        0.7677398530033055       0                        0.1571331321809499
0.8356727550637968        0                        0.19843759349392381      9.999987256263006        1                        0.8356727550637969       0                        0.19843759349392384
0.20774265723691238       0.049695851020628914     0.5975421398472294       9.999995363968035        1                        0.20774265723691243      0.04969585102062891      0.5975421398472295
0.06502989782294967       0.0929229542771799       0.6833140280668618       10.000001896534942       1                        0.0650298978229497       0.09292295427717993      0.6833140280668618
0                         0.08022452716239449      0.7356825817913625       9.999968651996019        1                        0                        0.08022452716239449      0.7356825817913625
0                         0.1653213109241623       0.6838525732016798       9.999975203645285        1                        0                        0.16532131092416233      0.6838525732016798
0.12746348351923145       0.07788477925472505      0.6610958118661493       9.999980775823076        1                        0.12746348351923145      0.07788477925472505      0.6610958118661491
0.16682202167807          0                        0.6947936949295686       10.000000782661534       1                        0.16682202167807         0                        0.6947936949295687
0.1898970692155132        0.06284660423227019      0.6388775956654368       10.000015462637066       1                        0.18989706921551314      0.06284660423227019      0.6388775956654366
0                         0                        0.7999999999999999       9.99998541354425         1                        0                        0                        0.7999999999999999
0.08384596952028396       0                        0.7473619104526169       9.99996999991364         1                        0.08384596952028399      0                        0.7473619104526166
0.058671105306500784      0.07641847305868767      0.877077914610136        9.99997911391613         1                        0.058671105306500784     0.07641847305868767      0.8770779146101363
0                         0.07579086703735122      0.9349399264366183       10.000007023458595       1                        0                        0.0757908670373512       0.9349399264366182
0                         0.09207596500678704      0.8472301727241935       9.99997382980545         1                        0                        0.09207596500678704      0.8472301727241937
0                         0                        0.8999999999999999       10.000011420207683       1                        0                        0                        0.9000000000000001
0.07072424430260775       0                        0.8465006136612757       9.999955542695949        1                        0.07072424430260774      0                        0.8465006136612755
0.06361463945474824       0                        0.9286168135673674       9.999944820829565        1                        0.06361463945474823      0                        0.9286168135673672
0.06255545084664206       0.08192552793244769      0.7737889760122929       10.000030941957199       1                        0.06255545084664209      0.08192552793244773      0.7737889760122928
0.24478544883251183       0                        0.6436639954015125       9.99994374179763         1                        0.2447854488325118       0                        0.6436639954015125
0.31116420247501414       0.08283175609819939      0.44750185242608653      9.999998540657463        1                        0.31116420247501425      0.0828317560981994       0.4475018524260862
0.372651520691249         0.07476514787807544      0.4245835737461012       10.000026590429666       1                        0.37265152069124885      0.07476514787807546      0.4245835737461013
0.559827207501623         0.1684371490745061       0.18561918995734142      9.999958847579693        1                        0.5598272075016232       0.1684371490745061       0.18561918995734142
0.5020581213896262        0.1724733972857039       0.14654260591381832      10.000051763659359       1                        0.5020581213896266       0.17247339728570396      0.14654260591381837
0.5096393784047832        0.2544190336887338       0.10836682988724147      10.000040345982635       1                        0.5096393784047831       0.2544190336887339       0.10836682988724144
0.44466328672765326       0.27490775107694304      0.10010217399771396      10.000036214790747       1                        0.4446632867276534       0.27490775107694293      0.10010217399771397
0.5692836156535712        0.2545686344261232       0.11763951002719905      9.999981576559557        1                        0.5692836156535712       0.25456863442612315      0.11763951002719907
0.5360220557253468        0.3326016291822899       0.07073824666694052      10.000036281232967       1                        0.5360220557253469       0.33260162918228997      0.07073824666694056
0.3138238857830022        0.17514342846078182      0.34042333364466004      10.000005460820287       1                        0.31382388578300197      0.17514342846078182      0.3404233336446599
0.3420158117536833        0.1722461220575102       0.1730312853774569       9.999976450050239        1                        0.34201581175368306      0.1722461220575102       0.1730312853774568
0.2993650815035969        0.23150363900487064      0.15686717082086296      10.00003308964045        1                        0.2993650815035968       0.23150363900487061      0.1568671708208629
0.300352317126748         0.2145423780108886       0.2344450781994037       9.999975854643731        1                        0.3003523171267481       0.21454237801088852      0.23444507819940366
0.3605167504281785        0.15713806661346716      0.24569164856089099      9.999988152767381        1                        0.36051675042817855      0.15713806661346708      0.24569164856089107
0.4020732298653522        0.22610373864616762      0.15857852688464444      9.99998034631431         1                        0.4020732298653519       0.22610373864616753      0.1585785268846444
0.46099654422060066       0.342328036931452        0.10438577277405067      10.000049868145766       1                        0.4609965442206007       0.3423280369314519       0.10438577277405069
0.39481039302277277       0.37241955932889775      0.11521243021355479      9.99997729100084         1                        0.3948103930227729       0.37241955932889775      0.11521243021355479
0.324865280890045         0.36057625411825106      0.19827811482005803      9.99997715420996         1                        0.3248652808900451       0.360576254118251        0.19827811482005797
0.39521278073452565       0.29494701599934975      0.17026131335384206      9.999973150000791        1                        0.39521278073452565      0.29494701599934986      0.170261313353842
0.3591371339172363        0.32985507835943445      0.14858293460178376      9.999986575199065        1                        0.35913713391723623      0.32985507835943456      0.14858293460178376
0.3234638748116999        0.2872905973899711       0.18195343899001273      9.999988777014694        1                        0.32346387481169986      0.2872905973899709       0.1819534389900128
0.45639785842381897       0.24052009936706026      0.1696532562724379       10.000044052786908       1                        0.4563978584238189       0.24052009936706034      0.16965325627243788
0.44195228449174656       0.09401432338178176      0.24643257329547547      10.000024614181322       1                        0.4419522844917464       0.0940143233817818       0.2464325732954755
0.5040643547450494        0.07497677744047972      0.2834181262222865       9.999982571452927        1                        0.5040643547450491       0.07497677744047972      0.2834181262222864
0.5658557487116057        0.1306523677418189       0.26361533517934055      9.999984160428985        1                        0.5658557487116057       0.13065236774181888      0.2636153351793406
0.44583403019028656       0.17843676412539214      0.18073732482720442      9.999999842950881        1                        0.44583403019028667      0.1784367641253922       0.18073732482720445
0.5074928089803774        0.14995355488095938      0.23181415967651603      10.000021775257403       1                        0.5074928089803771       0.14995355488095938      0.2318141596765161
0.38143085298533674       0.14199837906295712      0.30822620152701824      9.999990079763808        1                        0.38143085298533674      0.14199837906295712      0.30822620152701835
0.30198364752546025       0.32657483471336507      0.25315104395295834      9.999988135562552        1                        0.3019836475254604       0.32657483471336507      0.25315104395295845
0.42938831761857055       0.17975040898103536      0.25492947961862206      10.000009224278445       1                        0.4293883176185707       0.17975040898103545      0.25492947961862195
0.7788820287526544        0.08857519026835671      0.2094941333722019       10.00001310280537        1                        0.7788820287526547       0.08857519026835671      0.209494133372202
0.8358930745424666        0.1218916940886148       0.16792120392416057      9.999959666425413        1                        0.8358930745424662       0.12189169408861479      0.1679212039241606
0.7698830628286617        0.1609515448760225       0.11915226674719262      9.99997318968836         1                        0.7698830628286616       0.16095154487602248      0.11915226674719258
0.6486798710394902        0.1108192620747325       0.24258960319746287      10.00002090170916        1                        0.6486798710394903       0.11081926207473251      0.2425896031974629
0.6719054511088541        0.14030271717785717      0.19192340775049355      9.999984220876623        1                        0.6719054511088541       0.1403027171778572       0.1919234077504935
0.608181244541559         0.08220045043165415      0.2878186731852287       9.999982360991922        1                        0.6081812445415589       0.08220045043165418      0.28781867318522875
0.6763637916326173        0                        0.3272827124404878       10.000000729497698       1                        0.6763637916326174       0                        0.32728271244048773
0.5987661954694982        0                        0.3509415723695929       9.99998389258206         1                        0.598766195469498        0                        0.35094157236959295
0.43413883890748395       0.06669853965795154      0.4016652950661158       10.000004583445198       1                        0.4341388389074841       0.06669853965795157      0.40166529506611565
0.38092580474385007       0.1536676040156351       0.3880646119903508       9.999983223656256        1                        0.38092580474384996      0.15366760401563517      0.38806461199035097
0.5407250772903796        0.08928850132815337      0.34246236343363695      10.00002206220136        1                        0.5407250772903791       0.08928850132815343      0.34246236343363684
0.5330101388774299        0                        0.4077123276217805       10.000002688606708       1                        0.5330101388774298       0                        0.4077123276217805
0.4567034053717889        0.13339707931590308      0.3512804323525997       9.999989950422925        1                        0.4567034053717887       0.13339707931590314      0.3512804323525997
0.5057623193715969        0.08514938243688931      0.40158594785555163      9.999947340896178        1                        0.5057623193715967       0.08514938243688935      0.4015859478555514
0.48381406136048694       0.07512043839116829      0.472588021620664        9.999978336805246        1                        0.483814061360487        0.0751204383911683       0.4725880216206642
0.36067730508784857       0.06669853965795154      0.48522851221144         9.999959046535231        1                        0.3606773050878485       0.06669853965795157      0.4852285122114401
0.4039122007906411        0                        0.5449751813731559       10.000009075025465       1                        0.4039122007906411       0                        0.5449751813731558
0.4222456832241678        0.07090948902455992      0.478908266916052        10.000026614359191       1                        0.4222456832241678       0.0709094890245599       0.478908266916052
0.35508011874984946       0.06304621568197273      0.5734719361748786       9.999993557036214        1                        0.35508011874984935      0.06304621568197273      0.5734719361748787
0.32626700965778144       0                        0.5908201273063434       10.000037404378967       1                        0.3262670096577814       0                        0.5908201273063433
0.5043172655158373        0                        0.4944975313309666       9.999997138313987        1                        0.5043172655158373       0                        0.4944975313309666
0.3158252134763325        0.48306781947685157      0.16102207755950596      10.000030183149226       1                        0.3158252134763325       0.48306781947685135      0.16102207755950604
0.29950653140465966       0.5454055329576113       0.06301954382652943      10.000016640241181       1                        0.2995065314046598       0.5454055329576112       0.06301954382652947
0.2608184396747314        0.5744935226066223       0.10976936803726614      10.000038449732305       1                        0.2608184396747315       0.5744935226066227       0.10976936803726613
0.3604678613657981        0.5507013667103341       0.04671237384689931      9.999971045811325        1                        0.3604678613657981       0.550701366710334        0.04671237384689931
0.44637969072957634       0.5870113814676774       0                        9.999999623354878        1                        0.44637969072957623      0.5870113814676774       0
0.4030769130678942        0.6692651977135357       0                        9.999960238280398        1                        0.4030769130678943       0.6692651977135357       0
0.3895449844277915        0.6222402209975066       0.06649276181971177      9.999977886981263        1                        0.38954498442779156      0.6222402209975063       0.06649276181971177
0.4488521104887715        0.5334642094573729       0.06387826661231168      10.00000032651086        1                        0.44885211048877166      0.5334642094573728       0.06387826661231168
0.5205468257817787        0.5505148930573728       0.04103042755382003      9.9999815286833          1                        0.5205468257817786       0.5505148930573728       0.04103042755382003
0.5223735425389558        0.5943532737916611       0                        9.999981433655229        1                        0.5223735425389558       0.5943532737916611       0
0                         0.7477297658292923       0.08321528847316202      9.999932669699458        1                        0                        0.7477297658292922       0.08321528847316204
0.05836857451254547       0.72464551512838         0.06783458435299285      10.000031868980853       1                        0.05836857451254549      0.7246455151283798       0.06783458435299285
0                         0.8000000000000002       0                        9.999997873807784        1                        0                        0.8                      0
0.08022452716239449       0.7356825817913628       0                        10.000041452531713       1                        0.08022452716239449      0.7356825817913627       0
0.04726071009287104       0.7873509521655957       0.10981615686240484      9.99997381868039         1                        0.047260710092871035     0.787350952165596        0.1098161568624048
0.09452142018574214       0.7820320922822908       0.06502350618142567      10.000017223396002       1                        0.09452142018574211      0.7820320922822909       0.0650235061814257
0.09345731321226715       0.8481114468344501       0.08151793194634017      9.999987430582328        1                        0.09345731321226715      0.8481114468344498       0.08151793194634017
0.050568906605339206      0.8610280556942606       0.12677274345032105      10.000022120347417       1                        0.0505689066053392       0.8610280556942608       0.12677274345032105
0                         0.7926698120489006       0.154608807543384        10.000031526197013       1                        0                        0.7926698120489007       0.154608807543384
0.05225884608067645       0.6411006038606333       0.15186628347574607      9.999983575163252        1                        0.052258846080676456     0.6411006038606328       0.15186628347574607
0.06604438916298995       0.7105733284749934       0.13897381268422662      9.99992999287399         1                        0.06604438916298996      0.7105733284749932       0.13897381268422662
0                         0.6944439057890405       0.16693164834079682      9.99997420256648         1                        0                        0.6944439057890405       0.16693164834079685
0.24868378268006325       0.3868415657463426       0.28874530638224444      10.00001063201755        1                        0.2486837826800633       0.3868415657463426       0.28874530638224444
0.28677453178505413       0.3737089099322968       0.24351171060115123      9.999950285667246        1                        0.28677453178505424      0.37370890993229694      0.24351171060115118
0.06427671406113729       0.5119101436172867       0.2340758488299584       9.999978995110139        1                        0.06427671406113732      0.5119101436172868       0.23407584882995838
0.04791175621500178       0.5690399284457002       0.22780252697884124      9.99998717249507         1                        0.04791175621500177      0.5690399284457001       0.22780252697884118
0                         0.6343532690544488       0.25267738112751514      10.000036950048585       1                        0                        0.6343532690544488       0.2526773811275152
0                         0.5470604911704012       0.2578030299924964       10.000019173435437       1                        0                        0.5470604911704012       0.25780302999249644
0.0513373792472034        0.33094576078550464      0.4384482915986107       9.999951477174216        1                        0.05133737924720339      0.33094576078550464      0.4384482915986107
0.0519150058585255        0.29292846275862366      0.4938811803609691       9.999966463160579        1                        0.0519150058585255       0.29292846275862355      0.493881180360969
0.103830011717051         0.26126229019804725      0.49484007045962314      9.999992089674965        1                        0.103830011717051        0.26126229019804725      0.49484007045962314
0                         0.32459463531920013      0.4929222902623151       9.999962970780695        1                        0                        0.32459463531920013      0.492922290262315
0.052508506569916916      0.3179232337923637       0.5316483129639902       10.000026197098132       1                        0.05250850656991691      0.3179232337923637       0.5316483129639902
0.19283014218341188       0.46565562831410223      0.2312134214867691       9.999996485296835        1                        0.19283014218341188      0.4656556283141023       0.23121342148676913
0.12855342812227458       0.4767597960641722       0.21034866766742039      10.000001433746654       1                        0.12855342812227463      0.47675979606417224      0.21034866766742036
0.13938817877933055       0.5709834459486608       0.2008648980612669       10.000022052651618       1                        0.13938817877933063      0.570983445948661        0.20086489806126698
0.1426160968591931        0.6408751982138982       0.15760115635006502      9.99998584580925         1                        0.14261609685919308      0.6408751982138982       0.15760115635006502
0.09582351243000356       0.5910193657209991       0.1978020239651861       10.00002926924361        1                        0.09582351243000355      0.5910193657209993       0.19780202396518612
0.25710685624454915       0.45455146056403223      0.2520781753061178       9.999997329728709        1                        0.25710685624454926      0.4545514605640321       0.2520781753061179
0.12199981931663176       0.5102586863403743       0.282947030084389        10.000041860516536       1                        0.12199981931663176      0.5102586863403744       0.282947030084389
0.0871293326986541        0.5942814295097721       0.2588031293196768       9.999967812585616        1                        0.08712933269865414      0.5942814295097721       0.25880312931967686
0.04356466634932705       0.6374965772882751       0.29430530584938003      9.999995008635128        1                        0.043564666349327055     0.6374965772882749       0.29430530584938003
0                         0.3449599467988578       0.5922376544343583       9.999991654644589        1                        0                        0.3449599467988577       0.5922376544343583
0.1183032352436664        0.7069149352682896       0.16652396554148466      10.000007299284608       1                        0.1183032352436664       0.7069149352682893       0.1665239655414847
0.2589474781360974        0.6972704849161172       0.04674982421073665      10.000014065211762       1                        0.2589474781360974       0.6972704849161174       0.04674982421073667
0.25031119293319354       0.7441273360998539       0                        9.999981991602036        1                        0.2503111929331935       0.7441273360998542       0
0.15100871544038721       0.7109089792413638       0.09129300363513189      10.000047049454183       1                        0.15100871544038721      0.7109089792413635       0.09129300363513193
0.1596598644906068        0.7662783829462602       0                        10.000031379115878       1                        0.1596598644906068       0.7662783829462599       0
0.19171923040840644       0.7158449506865417       0.07399370819781849      9.999965750058863        1                        0.1917192304084065       0.7158449506865417       0.07399370819781852
0.21839895786788027       0.7729384458704942       0.05018250624669908      9.999955017692844        1                        0.21839895786788024      0.7729384458704942       0.05018250624669907
0.1940544204272277        0.6963972523135877       0.13792838573015168      10.000027265114          1                        0.19405442042722768      0.6963972523135878       0.13792838573015173
0.2675837633390013        0.6504136337323804       0.0934996484214733       10.000030281302827       1                        0.2675837633390012       0.6504136337323806       0.09349964842147336
0.3166738856403412        0.6987600354660094       0.06311173139601779      9.999913137400453        1                        0.3166738856403412       0.6987600354660093       0.06311173139601782
0.35349281437763225       0.7464892645459099       0                        9.999975480773209        1                        0.3534928143776322       0.7464892645459097       0
0.09207596500678712       0.8472301727241939       0                        9.999988689591383        1                        0.09207596500678711      0.8472301727241939       0
0.07579086703735122       0.9349399264366183       0                        9.99996405063447         1                        0.07579086703735124      0.9349399264366182       0
0                         1                        0                        9.99998053169046         1                        0                        1                        0
0.20096194440572734       0.8364753048410799       0                        9.999991373018348        1                        0.20096194440572734      0.8364753048410798       0
0.1548562957124833        0.8556617831108652       0.052742608591159326     9.999976224160662        1                        0.1548562957124834       0.8556617831108648       0.05274260859115932
0                         0.9081622366052335       0.15151907127653289      10.000006085226794       1                        0                        0.9081622366052339       0.1515190712765329
0.2589407775540799        0.8473705457461799       0.052742608591159326     9.999987866199774        1                        0.25894077755407985      0.8473705457461801       0.052742608591159326
0.046196603119396114      0.9570954006933046       0.09900617885562732      9.999953959383168        1                        0.046196603119396114     0.9570954006933048       0.09900617885562733
0                         0.9999999999999998       0.09999999999999998      10.000000110465326       1                        0                        0.9999999999999999       0.09999999999999998
0.0759680992684946        1                        0.06597770305965782      9.999943317938364        1                        0.07596809926849458      1                        0.0659777030596578
0.10000000000000002       1                        0                        10.000005779739977       1                        0.10000000000000002      1                        0
0.30024492868998026       0.8306476979948232       0                        9.999983134370106        1                        0.30024492868998026      0.8306476979948235       0
0.20766002343410206       0.19792994507689443      0.4967578506569312       9.999994234923141        1                        0.2076600234341021       0.19792994507689435      0.4967578506569309
0.13958818016641703       0.23232800783252172      0.45007187706502716      9.99999435427144         1                        0.13958818016641705      0.23232800783252175      0.4500718770650273
0.20610988739774566       0.2514298186425194       0.4119023776766104       9.9999893361762          1                        0.20610988739774572      0.2514298186425193       0.4119023776766106
0.103830011717051         0.20176426646285822      0.5091094978940444       9.99996556750159         1                        0.10383001171705102      0.2017642664628582       0.5091094978940446
0.13865158754334708       0.16336753408419538      0.5744750046355558       10.000030081969594       1                        0.13865158754334714      0.16336753408419546      0.5744750046355557
0.1350086895985145        0.12569320846454038      0.6340911959293613       10.000012715108229       1                        0.13500868959851448      0.12569320846454038      0.6340911959293613
0.052508506569916916      0.27902945761134706      0.5999405857321138       10.000028009432373       1                        0.052508506569916916     0.2790294576113471       0.5999405857321137
0                         0.24680708295716675      0.6295068357985626       10.00003594771487        1                        0                        0.24680708295716675      0.6295068357985627
0.0820665938786669        0.23584899700710388      0.5554871184632145       9.999985978538094        1                        0.0820665938786669       0.23584899700710402      0.5554871184632142
0.09799534266524282       0.1436128199945972       0.6776385641727599       10.000030365812087       1                        0.09799534266524285      0.1436128199945972       0.6776385641727599
0.0940553484399114        0.174807582910133        0.6160227481826074       10.000020283632123       1                        0.09405534843991138      0.174807582910133        0.616022748182607
0.0771792622400971        0.2298036498935841       0.6368395145915143       10.000005355222296       1                        0.0771792622400971       0.22980364989358412      0.6368395145915143
0.1641331877573338        0.22069861823783415      0.5683788745287327       10.000027384351675       1                        0.1641331877573338       0.22069861823783415      0.5683788745287329
0.30164785975806324       0.16566351219639877      0.4837103483243467       9.999986354861559        1                        0.30164785975806313      0.1656635121963988       0.48371034832434695
0.23883870131556556       0.184065161017568        0.560652734731611        9.999982574710438        1                        0.2388387013155657       0.18406516101756795      0.5606527347316113
0.2978681466453509        0.08510018847912078      0.5621708986187043       9.999999646000548        1                        0.29786814664535105      0.08510018847912079      0.5621708986187045
0.24826449278292562       0.09939170204125788      0.59625454019778         10.000022561033031       1                        0.24826449278292548      0.09939170204125786      0.59625454019778
0.20376308220546463       0.12419727860985177      0.6032825147573955       10.000020499247643       1                        0.2037630822054646       0.12419727860985177      0.6032825147573957
0                         0.15019811836382452      0.927501082471293        9.999985218774341        1                        0                        0.15019811836382455      0.927501082471293
0.06231174322068213       0.07619463606351352      0.938538957305068        9.999984329344365        1                        0.06231174322068212      0.07619463606351352      0.938538957305068
0                         0.10000000000000002      1                        9.999945103819375        1                        0                        0.10000000000000002      1
0                         0                        1                        9.999953939518486        1                        0                        0                        1
0.09999999999999998       0                        0.9999999999999998       9.999909767964724        1                        0.09999999999999998      0                        0.9999999999999999
0.06595238113486346       0.07597079906833941      1                        9.999930714253273        1                        0.06595238113486346      0.07597079906833941      1
0.151496504292861         0                        0.9081669347669328       9.999954264594956        1                        0.15149650429286105      0                        0.9081669347669324
0.11734221061300157       0.06076098111058821      0.9069256564960784       9.999949720919302        1                        0.11734221061300155      0.06076098111058823      0.9069256564960783
0.15493544460789316       0                        0.7925555495407919       10.000003066423513       1                        0.15493544460789319      0                        0.7925555495407918
0.08318791693314216       0.12152196222117642      0.9056843782252241       9.999960104706657        1                        0.08318791693314218      0.12152196222117646      0.9056843782252242
0                         0.3261321423552964       0.6753126636003086       10.000010860143496       1                        0                        0.32613214235529636      0.6753126636003087
0.06030317604028275       0.28479971687703515      0.6576562810004214       10.000010442226964       1                        0.06030317604028277      0.28479971687703526      0.657656281000421
0                         0.2503111929331936       0.7441273360998537       10.000000626733721       1                        0                        0.2503111929331937       0.7441273360998538
0                         0.1596598644906068       0.76627838294626         9.99998733550594         1                        0                        0.15965986449060682      0.76627838294626
0.07271588871617408       0.41697915301596356      0.38084151201774225      9.999969710144681        1                        0.07271588871617408      0.4169791530159638       0.38084151201774225
0.06974097323595525       0.4663077827156531       0.3009651826569396       9.999993359293295        1                        0.06974097323595528      0.4663077827156529       0.3009651826569397
0                         0.49770909353128184      0.3338682383341811       9.999998917370561        1                        0                        0.49770909353128184      0.3338682383341811
0                         0.40471644871251883      0.4489698044953082       9.999995494727168        1                        0                        0.40471644871251894      0.44896980449530827
0                         0.4662238276572467       0.4075713034572138       10.000017406019346       1                        0                        0.4662238276572467       0.4075713034572139
0.1394819464719105        0.4829045760657389       0.34285845818073013      10.000054947848367       1                        0.13948194647191056      0.4829045760657387       0.3428584581807303
0.15954371597697373       0.31657836067934336      0.39677868154192875      9.999978035299385        1                        0.1595437159769738       0.31657836067934325      0.39677868154192875
0.1940828645759869        0.43487307090604077      0.31580188228148726      10.000036069925846       1                        0.19408286457598678      0.4348730709060409       0.31580188228148737
0.1661786276787435        0.40818272614706014      0.3762616269104586       9.999983515175934        1                        0.16617862767874356      0.4081827261470601       0.37626162691045884
0.3051783281663924        0.28358831726361217      0.3171570537692889       9.999980976508931        1                        0.3051783281663923       0.28358831726361206      0.3171570537692888
0.28529276002882487       0.26354033864349913      0.38566783872826815      10.000004138422803       1                        0.28529276002882487      0.263540338643499        0.38566783872826804
0.34128683225095663       0.15966555810601693      0.43588748015734874      10.000021711295005       1                        0.3412868322509566       0.15966555810601693      0.43588748015734896
0.3504070121242084        0.20849269828975764      0.3939099498805255       9.999975180296017        1                        0.3504070121242082       0.20849269828975758      0.3939099498805254
0.2788456868842356        0.35439699631126137      0.3446596577191983       10.000011256045788       1                        0.2788456868842355       0.35439699631126115      0.3446596577191983
0.2225121572814896        0.38128986122916075      0.36046064231482844      9.99994548178652         1                        0.22251215728148954      0.3812898612291607       0.3604606423148286
0.254809950923314         0.4398785679614714       0.3121202184876128       10.00003763600517        1                        0.25480995092331404      0.43987856796147157      0.31212021848761284
0.26540719189125733       0.24349236002338603      0.4541786236872473       10.000003569371511       1                        0.26540719189125733      0.24349236002338603      0.4541786236872472
0.22916652402445142       0.32132120785037327      0.42464689905014796      9.999961130507215        1                        0.22916652402445153      0.32132120785037327      0.42464689905014785
0.1664982678707512        0.29129174902421023      0.4597434847548856       9.999958637382006        1                        0.1664982678707512       0.2912917490242101       0.4597434847548854
0.162487796505527         0.28426994318271265      0.5267280692828418       9.999955842414519        1                        0.16248779650552694      0.28426994318271254      0.5267280692828417
0.1382743907815002        0.3814923813880795       0.4367213715394298       9.999997087228438        1                        0.13827439078150017      0.3814923813880797       0.43672137153943
0.10501701313983378       0.31125183226552733      0.5703743356656652       10.00000498786768        1                        0.10501701313983379      0.31125183226552716      0.5703743356656652
0.12164570196066696       0.34637210682680336      0.5035478536025475       9.999991417956712        1                        0.12164570196066694      0.3463721068268033       0.5035478536025478
0.1847824684601377        0.3711159984902961       0.49789710081732264      9.999981911640857        1                        0.18478246846013766      0.3711159984902962       0.49789710081732264
0.18489791279068316       0.7987547241787316       0.09975047799845435      9.999966960401938        1                        0.18489791279068324      0.7987547241787317       0.09975047799845436
0.19512399773242567       0.6932650914699776       0.1982906131308802       9.999978020348632        1                        0.1951239977324257       0.693265091469978        0.19829061313088026
0.2090353843227059        0.6255146038644522       0.18699929684294667      10.000015010704104       1                        0.20903538432270594      0.6255146038644525       0.18699929684294675
0.21415589070388485       0.5263915007229799       0.19548398258244865      10.000005505982477       1                        0.21415589070388477      0.5263915007229799       0.19548398258244862
0.18417076498664756       0.49454133043556814      0.29036537989666283      10.000046239613697       1                        0.1841707649866476       0.4945413304355684       0.29036537989666295
0.26011790803284635       0.5229970535167537       0.2587640688507303       9.999982294291131        1                        0.26011790803284635      0.5229970535167537       0.2587640688507304
0.37440029314458506       0.7002495860159016       0.07947363858129898      9.999960542890285        1                        0.37440029314458495      0.7002495860159018       0.07947363858129902
0.4465625121298972        0.7468824162502012       0                        10.000012959308707       1                        0.4465625121298971       0.7468824162502015       0
0.4079632244974702        0.7640340348375538       0.07470190051859883      10.000005327116009       1                        0.4079632244974701       0.7640340348375538       0.07470190051859886
0.09239320623879217       0.9141908013866094       0.09801235771125463      10.000029079115954       1                        0.0923932062387922       0.9141908013866097       0.09801235771125462
0.06295020966326549       0.8994738503666856       0.1510477662940817       10.000022830696617       1                        0.06295020966326549      0.8994738503666857       0.1510477662940817
0.7153310440249138        0.27129839877190703      0.10941295882419574      10.000045693072623       1                        0.7153310440249139       0.2712983987719069       0.10941295882419574
0.6289278529023593        0.2547182351635126       0.12691219016715663      10.00007779165193        1                        0.6289278529023592       0.25471823516351244      0.12691219016715663
0.6275233714930951        0.3305712512047409       0.07073824666694052      10.0000867155231         1                        0.6275233714930954       0.33057125120474073      0.07073824666694055
0.7037214100120711        0.32922334236040934      0.07582176720964341      10.000048571703374       1                        0.7037214100120708       0.32922334236040923      0.07582176720964345
0.7481860441239636        0.3570510780354023       0                        10.000057367094223       1                        0.7481860441239636       0.3570510780354023       0
0.6921117759992285        0.38714828594891165      0.04223057559509114      9.99997807311784         1                        0.6921117759992282       0.38714828594891154      0.04223057559509114
0.6759952566407239        0.4076036034532334       0                        10.000009558642923       1                        0.675995256640724        0.40760360345323343      0
0.6232620732579894        0.20955956801341047      0.17580398208401057      10.000014712204983       1                        0.6232620732579899       0.20955956801341047      0.1758039820840106
0.6175962936136197        0.1644009008633083       0.22469577400086455      10.000049441822854       1                        0.6175962936136196       0.16440090086330833      0.2246957740008646
0.5656572860506277        0.19445498648466963      0.24317742778034723      10.000031691953048       1                        0.5656572860506279       0.19445498648466952      0.24317742778034732
0.6210045642671963        0.14574510812190136      0.29832443134459746      9.999963164158514        1                        0.6210045642671962       0.14574510812190142      0.29832443134459746
0.5874222481745034        0.4520567789549886       0                        10.000006140211143       1                        0.5874222481745034       0.4520567789549885       0
0.5943212882897809        0.4152897166656762       0.07318806348535813      10.000070018946435       1                        0.5943212882897807       0.41528971666567627      0.07318806348535813
0.6483253540621209        0.44468806321989235      0.04969377320631764      9.999991015827431        1                        0.6483253540621212       0.44468806321989246      0.04969377320631763
0.5021445165646644        0.4138911413079875       0.08878691812970442      10.000063739867837       1                        0.5021445165646644       0.4138911413079872       0.08878691812970448
0.4487855171284478        0.4135317512185086       0.1329571620618966       10.00005646508822        1                        0.44878551712844766      0.4135317512185086       0.1329571620618966
0.5584447748975944        0.42100612752406025      0.1275708960297048       10.000019926699062       1                        0.5584447748975945       0.42100612752406014      0.12757089602970478
0.3097915087919901        0.6395446683531176       0.17973534785016024      10.00003804981772        1                        0.30979150879199024      0.6395446683531176       0.17973534785016024
0.34966824660989076       0.6308924446753121       0.12311405483493601      9.999977139113208        1                        0.3496682466098908       0.6308924446753124       0.12311405483493598
0.29685129366076807       0.560212689430131        0.207230988835037        10.00000696847927        1                        0.296851293660768        0.5602126894301308       0.207230988835037
0.3262666869683901        0.43386191084653103      0.2146027906501033       9.999994750619729        1                        0.3262666869683901       0.433861910846531        0.21460279065010324
0.39542651769223114       0.4131723611290298       0.17712740599408874      9.999999872080773        1                        0.39542651769223097      0.41317236112902994      0.17712740599408872
0.3759757759327384        0.5091650789863099       0.09342474769379867      10.000012255915518       1                        0.3759757759327384       0.5091650789863101       0.09342474769379863
0.38570114681248474       0.46116872005766985      0.13527607684394374      10.00001696593903        1                        0.38570114681248485      0.4611687200576698       0.1352760768439438
0.4524450204608171        0.47292462501500854      0.12382995156106794      10.000018786142416       1                        0.45244502046081725      0.4729246250150083       0.12382995156106792
0.330448509798394         0.4993451707950762       0.24512896522288363      10.000004441653978       1                        0.3304485097983942       0.49934517079507595      0.24512896522288374
0.38299313612764607       0.4815041560983781       0.18514564820872756      10.00001979711061        1                        0.382993136127646        0.481504156098378        0.1851456482087275
0.37055975456306106       0.5498359510677264       0.1931638904233664       9.999977880486444        1                        0.37055975456306106      0.5498359510677264       0.19316389042336637
0.6686164177795711        0.49765698225829047      0                        10.000003411501686       1                        0.6686164177795711       0.4976569822582905       0
0.7438379873977168        0.4484133191238894       0                        10.000001051186315       1                        0.7438379873977167       0.4484133191238894       0
0.5914564308184243        0.5478908106203892       0                        9.999951900071006        1                        0.5914564308184244       0.5478908106203892       0
0.5432924889087282        0.48545424568452294      0.07318806348535813      10.00002030666647        1                        0.5432924889087279       0.4854542456845228       0.07318806348535813
0.5165728635817991        0.5452291975391094       0.08782819853350483      9.99999524933498         1                        0.5165728635817992       0.5452291975391094       0.08782819853350482
0.5566642283909667        0.5849727511921994       0.05233197332061658      9.99995095388592         1                        0.5566642283909669       0.5849727511921994       0.05233197332061657
0.589034499216199         0.6496264051971408       0                        10.000028181730473       1                        0.589034499216199        0.649626405197141        0
0.599719680363895         0.5179855640915305       0.05121781658158105      10.000082184818138       1                        0.5997196803638951       0.5179855640915304       0.051217816581581074
0.620655451483518         0.4817725229865513       0.09938754641263522      10.00002497433744        1                        0.6206554514835181       0.4817725229865514       0.09938754641263524
0.6678611947411901        0.5898108148146042       0                        9.99999475038038         1                        0.6678611947411902       0.5898108148146042       0
0.7491392913653468        0.1734421567785628       0.21273251499026763      9.999989972608445        1                        0.7491392913653471       0.17344215677856278      0.2127325149902676
0.6926647887463646        0.19840498392406025      0.18969731131494266      10.000018457193663       1                        0.6926647887463647       0.19840498392406036      0.1896973113149426
0.6932612235696789        0.24261019859691102      0.172701310423826        10.000033514214266       1                        0.6932612235696786       0.242610198596911        0.17270131042382608
0.7675691378533794        0.27920218016977083      0.11271854764798064      10.000016779127773       1                        0.7675691378533797       0.27920218016977066      0.11271854764798069
0.7674049918276491        0.3259952933547295       0.07073824666694052      9.999997000993158        1                        0.7674049918276489       0.32599529335472954      0.07073824666694054
0.8352364904395455        0.30906414682844946      0                        10.000009573985215       1                        0.8352364904395452       0.3090641468284495       0
0.920414002579119         0.07016416717911435      0.20719021022857126      10.000017868514188       1                        0.9204140025791185       0.07016416717911439      0.20719021022857123
0.9153763373034446        0                        0.2491339535246169       9.999991999859251        1                        0.9153763373034444       0                        0.24913395352461695
1                         0                        0.19999999999999996      9.999997244441545        1                        1                        0                        0.19999999999999996
0.8337171697012125        0.3703048850525625       0.06892754471020514      10.000048585596518       1                        0.8337171697012128       0.37030488505256254      0.06892754471020514
0.8276408639040664        0.4023493110780487       0                        10.00003792630176        1                        0.8276408639040667       0.4023493110780487       0
0.8317097155500217        0.26886102410560136      0.0758479031704777       10.000010199132184       1                        0.8317097155500217       0.26886102410560136      0.07584790317047772
0.9123645655633759        0.2571003928896256       0                        10.000045153086374       1                        0.9123645655633759       0.2571003928896256       0
0.8960144392723942        0.21172675485647324      0.08095755967401487      10.000038392260224       1                        0.8960144392723944       0.21172675485647321      0.08095755967401487
1                         0.19999999999999996      0                        10.000053106923101       1                        1                        0.19999999999999996      0
0.9179465372712333        0.13887326926516289      0.12973776884585578      10.000031605186244       1                        0.9179465372712332       0.13887326926516289      0.12973776884585583
0.9158298043202776        0.1396008018116958       0.19620712309766092      10.00003408321483        1                        0.915829804320278        0.13960080181169582      0.19620712309766086
1                         0.07452187277733487      0.15403171511538546      10.000040722413775       1                        1                        0.07452187277733488      0.15403171511538544
0.9299399291205054        0.20309950249028824      0.12730176845819843      10.000042500595784       1                        0.9299399291205052       0.20309950249028833      0.1273017684581985
1                         0.15585484444171102      0.09155433376755098      10.000026220880402       1                        1                        0.155854844441711        0.091554333767551
0.9271489432665767        0.2622130643025196       0.062432884035270544     10.000027313051914       1                        0.9271489432665767       0.2622130643025197       0.062432884035270565
0.9114112501371731        0.35351901941829883      0                        10.00004957340903        1                        0.9114112501371728       0.3535190194182988       0
1                         0.29999999999999993      0                        10.000043869701932       1                        1                        0.2999999999999999       0
0.8561706868538365        0.20591497132848008      0.14572464517150527      10.000003653347692       1                        0.8561706868538365       0.20591497132848005      0.14572464517150516
0.7677332838791097        0.23240906698481217      0.1546988486290208       10.000014250287789       1                        0.76773328387911         0.23240906698481206      0.15469884862902072
0.7384581254733525        0.2799038072627426       0.16577223264818605      10.000014878086615       1                        0.7384581254733523       0.2799038072627426       0.16577223264818605
0.7305452988515841        0.11447524657231348      0.2707661813515145       9.99999756646874         1                        0.7305452988515845       0.11447524657231344      0.2707661813515145
0.8315494489012203        0.0609458470443074       0.25983722524428127      9.999994196565186        1                        0.8315494489012206       0.060945847044307395     0.25983722524428116
0.7073197187822202        0.0849917914691888       0.32143237679848385      10.000025462173086       1                        0.70731971878222         0.08499179146918884      0.32143237679848374
0.7450718146866762        0                        0.25046558989720913      9.999975954905292        1                        0.7450718146866764       0                        0.25046558989720913
0.8301721344041024        0                        0.2996141690639053       9.999989656797185        1                        0.8301721344041024       0                        0.29961416906390526
0.7468324112242348        0                        0.3535807367409966       9.999984896480848        1                        0.7468324112242347       0                        0.3535807367409966
0.8503422712384392        0.06555500711171088      0.3218735177712753       9.999981063203112        1                        0.8503422712384392       0.06555500711171088      0.32187351777127543
0.913397459621556         0                        0.35000000000000003      9.999955579659026        1                        0.9133974596215563       0                        0.35
0.8293718143235164        0                        0.3989391718032495       10.0000423102874         1                        0.8293718143235167       0                        0.3989391718032494
0.13005979564589934       0.10465986858352064      0.7229932830812923       9.999997163486585        1                        0.1300597956458994       0.10465986858352065      0.7229932830812923
0.2640591212636189        0.060737945260613116     0.7929496016069754       9.999968546989308        1                        0.26405912126361897      0.06073794526061314      0.7929496016069755
0.23197763602729307       0                        0.8391349956693855       9.99994514289327         1                        0.23197763602729313      0                        0.8391349956693853
0.25742801508722507       0                        0.7480712290061186       9.999988096294905        1                        0.2574280150872251       0                        0.7480712290061186
0.31095582333819644       0                        0.8354347586970616       10.000017608602638       1                        0.3109558233381965       0                        0.8354347586970617
0.18797300055699023       0.06179227474644168      0.7051937963471386       9.999973253002219        1                        0.1879730005569903       0.06179227474644168      0.7051937963471387
0.24182645347082027       0.0734462316127812       0.6774639823845569       9.9999918089591          1                        0.24182645347082027      0.07344623161278123      0.6774639823845571
0.32134243357227166       0                        0.6749207180376593       10.000015185342226       1                        0.32134243357227177      0                        0.6749207180376595
0.2798695138241346        0.07291906686986695      0.7213418850144752       9.999977981887717        1                        0.2798695138241347       0.07291906686986695      0.7213418850144749
0.06502989782294967       0.1321598665370637       0.7446358330137761       10.000024080296495       1                        0.0650298978229497       0.13215986653706369      0.744635833013776
0.18604893189846725       0.060737945260613116     0.7715099970288405       10.000037178989876       1                        0.18604893189846725      0.060737945260613144     0.7715099970288402
0.26476176000223883       0.0575718064081603       0.8576518445736054       9.999953372223796        1                        0.2647617600022389       0.0575718064081603       0.8576518445736058
0.25725712698586395       0                        0.9123707801097038       9.999925081624337        1                        0.257257126985864        0                        0.9123707801097038
0.08844841164542884       0.20413654598330738      0.7183551166146697       9.999983385794481        1                        0.08844841164542888      0.2041365459833075       0.7183551166146694
0.20667708522972827       0.13471134161630857      0.6637901175412061       9.999993128242178        1                        0.2066770852297282       0.1347113416163085       0.6637901175412062
0.1534783094683785        0.17380582481298648      0.7379254715544759       9.999972835803574        1                        0.1534783094683786       0.17380582481298654      0.737925471554476
0.0637060613779283        0.13888538335047076      0.8223110730192217       10.000003152644096       1                        0.06370606137792832      0.1388853833504707       0.8223110730192217
0                         0.20096194440572743      0.8364753048410796       9.999954698403373        1                        0                        0.20096194440572737      0.8364753048410796
0.12511090169328412       0.08362652870250083      0.8118953702332234       10.000006555171527       1                        0.1251109016932842       0.08362652870250084      0.8118953702332234
0.1989327061622707        0.07218223698155697      0.8329549010453037       9.999974092387596        1                        0.19893270616227066      0.072182236981557        0.8329549010453036
0.13929460558083132       0.12871617675774363      0.7749104208938498       10.000010414102812       1                        0.13929460558083132      0.12871617675774366      0.7749104208938498
0.14185902223964295       0.11400701925779491      0.8916772432549541       9.999982314053884        1                        0.14185902223964295      0.1140070192577949       0.8916772432549539
0.060531206636823445      0.34080887249671316      0.6929927543375053       9.999933415631402        1                        0.06053120663682345      0.34080887249671316      0.6929927543375052
0                         0.35349281437763197      0.7464892645459098       10.000021797169405       1                        0                        0.3534928143776321       0.7464892645459098
0.4082669561941887        0.09110312750812745      0.5816673910987814       9.999980642907145        1                        0.40826695619418873      0.09110312750812749      0.5816673910987814
0.2956799063846503        0.08510018847912078      0.6497341684219751       10.000016565194718       1                        0.29567990638465047      0.08510018847912078      0.6497341684219754
0.37433459231161087       0.07816779644945755      0.6396916344996103       9.99998657291551         1                        0.37433459231161076      0.07816779644945758      0.6396916344996106
0.3956356960820244        0.13339707931590308      0.47066284599176217      9.999991910626493        1                        0.3956356960820244       0.13339707931590314      0.4706628459917623
0.3362914089886104        0.14713476848833054      0.5660611646108525       10.000027008266779       1                        0.33629140898861026      0.1471347684883306       0.5660611646108525
0.36076328464350255       0.18896415508118575      0.4976226544823147       10.000004257323932       1                        0.3607632846435027       0.1889641550811857       0.4976226544823147
0.5409139134498946        0.24064428745567912      0.18664532650519852      10.00006179373026        1                        0.5409139134498949       0.24064428745567928      0.18664532650519844
0.5743350179194118        0.33133502003039883      0.14147649333388104      10.000021441405432       1                        0.5743350179194114       0.3313350200303987       0.14147649333388113
0.4669616866573513        0.3026034346087284       0.1585691877176714       10.000039473010837       1                        0.4669616866573511       0.3026034346087283       0.15856918771767148
0.595032390628968         0.26007096880809505      0.1945826990650637       9.999966954055456        1                        0.5950323906289677       0.260070968808095        0.19458269906506367
0.6418410655063688        0.3059702271930566       0.18015120549113625      10.000067303697577       1                        0.6418410655063692       0.30597022719305644      0.18015120549113628
0.49476497408137954       0.3646629864955863       0.17026145814586144      10.000042014444443       1                        0.49476497408137926      0.3646629864955864       0.17026145814586136
0.36728332289248145       0.23166936312232378      0.28604326669395547      9.999994030647136        1                        0.3672833228924813       0.2316693631223237       0.28604326669395536
0.3812480518135036        0.26330818956083674      0.22815229002389875      10.000011257400871       1                        0.38124805181350374      0.26330818956083674      0.22815229002389878
0.44085561328374145       0.23273341189648206      0.22961917294700612      10.000007693017597       1                        0.4408556132837413       0.23273341189648197      0.22961917294700615
0.43256980409683043       0.29176062371260253      0.21919535924755373      10.000040360898199       1                        0.43256980409683055      0.29176062371260253      0.21919535924755368
0.4242839949099194        0.350787835528723        0.20877154554810134      10.000021619802162       1                        0.42428399490991925      0.3507878355287228       0.20877154554810137
0.4020690348780648        0.4017427628441037       0.2558643854134132       10.000099053425776       1                        0.40206903487806467      0.4017427628441037       0.2558643854134131
0.34190927619661227       0.37965188515649145      0.28351304649170783      9.999946935947293        1                        0.34190927619661243      0.37965188515649134      0.2835130464917078
0.3803712386336207        0.32380315689291145      0.2383895679434329       9.999993087089083        1                        0.3803712386336207       0.3238031568929116       0.2383895679434328
0.4934527173261226        0.30083401196991544      0.22503659558040762      9.999980762626375        1                        0.49345271732612284      0.30083401196991555      0.2250365955804075
0.48521084192971226       0.178953075710967        0.3064697569562148       9.999987928015203        1                        0.48521084192971214      0.17895307571096708      0.30646975695621487
0.5646271348871835        0.17857700265630674      0.31355751667235515      10.000038076452272       1                        0.5646271348871836       0.17857700265630683      0.3135575166723551
0.5137182784876356        0.22450907210603094      0.2616590815598299       10.000044091295857       1                        0.5137182784876356       0.22450907210603083      0.2616590815598299
0.4474703978444733        0.22327228380642078      0.34823049658551425      9.999985771684019        1                        0.44747039784447307      0.22327228380642075      0.34823049658551425
0.38811657641751296       0.28661483454345277      0.32066387300022686      10.000021704391747       1                        0.38811657641751296      0.28661483454345293      0.3206638730002267
0.46054401915345433       0.23299156768926949      0.2924853890115113       10.000017173893232       1                        0.4605440191534544       0.23299156768926943      0.29248538901151117
0.39344558506605787       0.2559368409904461       0.3785340891802131       10.000053835809304       1                        0.3934455850660577       0.2559368409904463       0.3785340891802129
0.34389775841339004       0.34797865113792154      0.3499720685128483       10.000032999791573       1                        0.34389775841339004      0.34797865113792165      0.34997206851284823
0.4080604074514445        0                        0.6508298770486687       9.999986150868697        1                        0.4080604074514447       0                        0.6508298770486685
0.47653639329090597       0                        0.5928669534000176       10.000005459415299       1                        0.47653639329090597      0                        0.5928669534000176
0.44410524667887746       0.06304621568197273      0.5253106381871901       10.000040880507838       1                        0.4441052466788774       0.06304621568197272      0.52531063818719
0.4955253042583838        0.057396168562192554     0.5734590316333833       9.999974571525751        1                        0.4955253042583837       0.057396168562192554     0.5734590316333834
0.8316596086405552        0.1218916940886148       0.2445790304593996       10.000029751106657       1                        0.8316596086405557       0.12189169408861479      0.24457903045939952
0.8306867728481188        0.1828375411329222       0.2057278730550942       10.000018920070351       1                        0.8306867728481183       0.18283754113292225      0.20572787305509432
0.6844090842845757        0.179621416213022        0.26136541941239855      10.00003516383967        1                        0.6844090842845757       0.179621416213022        0.2613654194123986
0.7635162814976215        0.16600510847793606      0.288646201337954        10.000046961620162       1                        0.7635162814976213       0.1660051084779361       0.28864620133795404
0.6732742079229229        0                        0.4033885959688528       10.000006649593605       1                        0.6732742079229228       0                        0.4033885959688527
0.6358969173807951        0.08262528151978384      0.36931897690349563      10.000048683001333       1                        0.6358969173807947       0.08262528151978386      0.3693189769034955
0.5913178918339097        0                        0.447441832695709        9.999963184417721        1                        0.5913178918339098       0                        0.44744183269570903
0.7040750985110014        0.05637297982611046      0.3928849585858797       9.999997707094241        1                        0.7040750985110015       0.05637297982611047      0.39288495858587963
0.7461310122242795        0                        0.4453449344787018       10.000037185786192       1                        0.7461310122242792       0                        0.4453449344787019
0.6679234377248198        0                        0.4932495432814214       9.999990982148185        1                        0.6679234377248199       0                        0.4932495432814213
0.6636125902200313        0.08305011260791352      0.4508192806217626       10.000010528867792       1                        0.6636125902200315       0.08305011260791352      0.45081928062176263
0.6318457948871034        0.14543519482084258      0.36069225424478796      10.000019857454264       1                        0.6318457948871035       0.14543519482084258      0.36069225424478807
0.5773857998357098        0.1036002252158271       0.40150660064498744      9.99999810426388         1                        0.57738579983571         0.10360022521582704      0.40150660064498744
0.5832308621031674        0.18033578096994         0.36622896968582114      10.000031503238443       1                        0.5832308621031677       0.18033578096994007      0.366228969685821
0.5965955938444926        0                        0.5203385386126798       9.999981037591624        1                        0.5965955938444926       0                        0.5203385386126796
0.5782199192895041        0.06250000000000001      0.48882179251447716      9.999995680014326        1                        0.578219919289504        0.06250000000000001      0.488821792514477
0.5111625829841907        0.06277310784098634      0.5070662153508336       10.000022874355494       1                        0.5111625829841907       0.06277310784098634      0.5070662153508338
0.4768661851994856        0.12110255631996922      0.5113323065443935       10.00004655578743        1                        0.4768661851994855       0.12110255631996923      0.5113323065443934
0.46331085720513654       0.15024087678233658      0.45067851191036146      9.999999793963063        1                        0.4633108572051369       0.15024087678233664      0.45067851191036123
0.4283782211355972        0.20308885888639133      0.41460630054528724      9.999957774778405        1                        0.42837822113559726      0.20308885888639144      0.4146063005452873
0.5201891243454142        0.15019287477796342      0.386675816491203        9.999988170774985        1                        0.5201891243454142       0.15019287477796348      0.3866758164912028
0.5280592214631242        0.1196810439161379       0.4629032473994365       9.99999747304158         1                        0.5280592214631242       0.11968104391613787      0.4629032473994366
0.3838932278419176        0.12609243136394546      0.5561237450434137       9.999975825254163        1                        0.38389322784191776      0.1260924313639454       0.5561237450434137
0.5530982960813797        0                        0.585849504197504        9.99999258975674         1                        0.55309829608138         0                        0.5858495041975039
0.5591101214132391        0.06250000000000001      0.5580256282653747       10.000012800290722       1                        0.5591101214132391       0.06250000000000001      0.5580256282653747
0.4614537936385278        0.11916003933428224      0.5898628460226844       10.000003374400746       1                        0.46145379363852784      0.11916003933428226      0.5898628460226845
0.5346098827936455        0.06978577309892443      0.6202456880651676       10.000083622135515       1                        0.5346098827936456       0.06978577309892443      0.6202456880651677
0.45298927823857144       0.07123540441979433      0.6296491005772457       10.00000300038151        1                        0.45298927823857166      0.07123540441979431      0.6296491005772453
0.5050906797907583        0                        0.6636224802947079       10.000016153908089       1                        0.5050906797907582       0                        0.6636224802947079
0.36224258855310026       0                        0.7420829826298245       10.000014724780693       1                        0.36224258855310043      0                        0.7420829826298245
0.3760130557876887        0.5752152442814776       0.1329855236394236       9.99999085278991         1                        0.3760130557876889       0.5752152442814772       0.13298552363942354
0.4364330408001331        0.6784595502427013       0.07298320020050537      10.00004054394632        1                        0.43643304080013295      0.6784595502427013       0.07298320020050535
0.4926156801909594        0.6667846995993771       0                        9.99999551897852         1                        0.4926156801909594       0.6667846995993773       0
0.40954047292099166       0.6582110924847396       0.12568773328693064      9.99998042521495         1                        0.4095404729209917       0.6582110924847396       0.1256877332869307
0.48819148081866326       0.6094574558975693       0.08479950994434966      9.999960679350515        1                        0.4881914808186635       0.6094574558975693       0.08479950994434969
0.4635161229568675        0.5757071411770714       0.13942365291452777      10.000018409631595       1                        0.46351612295686756      0.5757071411770714       0.13942365291452774
0.5491711817398336        0.6519665789502984       0.0796720981172331       10.000036260794102       1                        0.5491711817398334       0.6519665789502984       0.07967209811723312
0.5439737504110761        0.7441712505442977       0                        10.00003981147573        1                        0.543973750411076        0.7441712505442978       0
0.10280248103239806       0.7654058631976256       0.14156828821771736      9.99996540516126         1                        0.10280248103239802      0.7654058631976253       0.1415682882177173
0.04996627326073745       0.7464815019780936       0.19486696384013996      9.99997777638461         1                        0.04996627326073746      0.7464815019780936       0.19486696384014
0.15783086082338052       0.7720792601557548       0.15598069264570283      9.999937579377846        1                        0.15783086082338058      0.7720792601557546       0.15598069264570288
0.05440915660454489       0.8336920211013442       0.1809740971760532       9.999981900104993        1                        0.05440915660454488      0.8336920211013444       0.18097409717605326
0                         0.8390024394294698       0.2319011819892551       9.999977708978012        1                        0                        0.8390024394294696       0.23190118198925508
0.12590041932653098       0.8907854641281376       0.15057646131163063      9.999996888372353        1                        0.12590041932653098      0.8907854641281373       0.1505764613116307
0.10881831320908977       0.8283816027732186       0.13004701236285135      9.999976464472415        1                        0.10881831320908977      0.8283816027732186       0.1300470123628514
0.16408723859696125       0.832611803650276        0.15224310442398883      9.999967190794424        1                        0.16408723859696123      0.8326118036502755       0.15224310442398886
0.048876454898970814      0.8765966204080395       0.21458657016688842      10.000000283949053       1                        0.04887645489897083      0.8765966204080394       0.21458657016688848
0                         0.9123645655633758       0.2571003928896259       9.99998844029606         1                        0                        0.9123645655633758       0.25710039288962594
0                         0.7487396348868133       0.2570646112676792       10.00002367998591        1                        0                        0.7487396348868134       0.25706461126767927
0                         0.6807117250667782       0.3298074823790833       9.999998649976986        1                        0                        0.6807117250667784       0.32980748237908325
0.04540869107335977       0.7186565672380015       0.33035607292549857      10.000008900538544       1                        0.04540869107335977      0.7186565672380015       0.33035607292549857
0.10451769216135295       0.6871271193756328       0.22203195405531295      10.000013310306832       1                        0.10451769216135298      0.6871271193756326       0.22203195405531304
0.0703918277037285        0.7178042961650665       0.24926401582786722      10.000034067528537       1                        0.07039182770372852      0.7178042961650667       0.2492640158278672
0.09081738214671954       0.6891270903520395       0.3036610678155945       10.000064688378945       1                        0.09081738214671954      0.6891270903520396       0.3036610678155946
0.3288020585853266        0.45054896447239445      0.29772343147085895      9.999951894658341        1                        0.32880205858532646      0.4505489644723947       0.2977234314708587
0.3992884748390939        0.39549821419688796      0.3301355247215505       10.00003996189368        1                        0.3992884748390939       0.39549821419688785      0.3301355247215503
0.31800768896282383       0.5405403511802875       0.28138895571135814      9.999993678227897        1                        0.31800768896282394      0.5405403511802875       0.2813889557113582
0                         0.7481860441239636       0.3570510780354026       9.999964673392558        1                        0                        0.7481860441239636       0.3570510780354025
0.06974097323595525       0.5399052219017878       0.3481441456062273       10.000027423234922       1                        0.06974097323595528      0.539905221901788        0.34814414560622714
0                         0.5969058677378367       0.3534298330317245       9.999959381918385        1                        0                        0.5969058677378367       0.35342983303172454
0.05140836162849678       0.6105151789006908       0.39619280249529587      10.000016978165107       1                        0.0514083616284968       0.610515178900691        0.39619280249529604
0                         0.5279008779266472       0.40988876877297026      10.000017317237628       1                        0                        0.5279008779266474       0.40988876877297026
0                         0.6759952566407235       0.40760360345323277      9.999975869116712        1                        0                        0.6759952566407234       0.4076036034532329
0.0691371953907501        0.4381703251819053       0.46524013130442393      10.000000624641558       1                        0.06913719539075008      0.4381703251819053       0.4652401313044242
0.06197980873990212       0.3728572128804413       0.5162755775061014       10.00000795908321        1                        0.061979808739902144     0.3728572128804412       0.5162755775061018
0                         0.4000268573303984       0.5217547855891005       10.000007785784147       1                        0                        0.4000268573303983       0.5217547855891006
0.06136952298663313       0.38779573147363716      0.6085683411054682       10.00000540973638        1                        0.061369522986633125     0.38779573147363733      0.6085683411054678
0.1742586653973082        0.5542095899650955       0.2649288775118384       10.000050118389591       1                        0.17425866539730825      0.5542095899650955       0.2649288775118385
0.16258511416909086       0.6344296597193876       0.23594312862488637      10.000020267259918       1                        0.16258511416909094      0.6344296597193876       0.23594312862488645
0.12720213923735682       0.5755637182678589       0.3085004514489775       10.000045822964275       1                        0.12720213923735682      0.5755637182678588       0.3085004514489774
0.20817516269149422       0.48974783425488994      0.364492509124068        10.000026357325389       1                        0.20817516269149416      0.48974783425489         0.36449250912406783
0.3056224923555962        0.5158760962326532       0.31259773816877795      10.00000640418683        1                        0.3056224923555961       0.5158760962326531       0.31259773816877795
0.25492815698289933       0.5108640475456283       0.3130383844960056       9.999950130326964        1                        0.2549281569828993       0.5108640475456284       0.3130383844960055
0.16727494577605947       0.5568460070259457       0.35819777357827814      10.000027428842483       1                        0.16727494577605945      0.5568460070259459       0.3581977735782781
0.12637472886062476       0.6239441797970012       0.3519030380324883       9.999994368814116        1                        0.1263747288606248       0.6239441797970016       0.3519030380324883
0.15607838920973796       0.6609100266435578       0.3114621986104971       9.999997335122307        1                        0.15607838920973802      0.6609100266435578       0.31146219861049723
0.0771170721320862        0.6911270613284461       0.38529018157587613      10.000063329795047       1                        0.0771170721320862       0.691127061328446        0.38529018157587613
0                         0.4030769130678942       0.6692651977135359       10.000047547756418       1                        0                        0.40307691306789434      0.6692651977135357
0                         0.44637969072957623      0.5870113814676776       10.000019738240422       1                        0                        0.4463796907295762       0.5870113814676775
0.14507014557306122       0.7499422106539294       0.2165011942099751       9.999946156203892        1                        0.14507014557306122      0.7499422106539294       0.2165011942099752
0.2772283571962575        0.7565496206408572       0.09247942788180881      9.999962630225943        1                        0.2772283571962575       0.7565496206408574       0.09247942788180875
0.21099123897616673       0.7490838383593551       0.1475364990045059       10.000056125119782       1                        0.21099123897616676      0.7490838383593553       0.14753649900450586
0.2639543293423204        0.6936909982622604       0.1638613821228986       9.999974048266129        1                        0.2639543293423205       0.6936909982622604       0.16386138212289858
0.3583297797025767        0.8045412593808287       0.08278014369483701      10.000009512613623       1                        0.3583297797025767       0.8045412593808287       0.08278014369483701
0.3994720385481429        0.8293513892072224       0                        10.000002875152152       1                        0.3994720385481428       0.8293513892072221       0
0.35478306010047217       0.7520389772138542       0.11762471937305133      9.999987932300144        1                        0.3547830601004722       0.7520389772138539       0.11762471937305137
0.3512363404983676        0.6995366950468797       0.1524692950512657       10.000005610514743       1                        0.35123634049836744      0.6995366950468793       0.15246929505126564
0.4415261558503553        0.8278184836592061       0.06993016245589874      9.999957906332659        1                        0.44152615585035515      0.8278184836592062       0.06993016245589877
0.496786313545669         0.8308612837536582       0                        10.00003062504361        1                        0.49678631354566893      0.8308612837536581       0
0.21763662641817955       0.8640933934975364       0.10548521718231865      9.999953097921177        1                        0.21763662641817955      0.8640933934975369       0.10548521718231864
0.30384240571953475       0.8809721625513485       0.06255198394383367      9.99999535158882         1                        0.30384240571953475      0.8809721625513484       0.0625519839438337
0.2473675507223101        0.8973721789703814       0.08320004964850915      10.000027749083692       1                        0.2473675507223101       0.8973721789703814       0.08320004964850919
0.15019811836382466       0.9275010824712934       0                        10.000051130722763       1                        0.15019811836382463      0.9275010824712935       0
0.2496506538515897        0.9154294850628467       0                        9.999987423022699        1                        0.2496506538515897       0.9154294850628465       0
0.17798424677532035       0.9179855433137505       0.10415016388503509      10.000030084495455       1                        0.17798424677532043      0.9179855433137507       0.10415016388503508
0                         1                        0.19999999999999996      10.000056095278428       1                        0                        1                        0.19999999999999998
0.3039939635894281        0.8249720338666044       0.12375541985372565      10.000008131571157       1                        0.30399396358942804      0.8249720338666044       0.12375541985372564
0.09775290979794163       0.9141908013866094       0.19727195834452171      10.000052036547068       1                        0.09775290979794166      0.9141908013866097       0.19727195834452171
0.09164780119152852       1                        0.15587022085027444      10.000061244284757       1                        0.0916478011915285       1                        0.1558702208502744
0.15311369655824408       1                        0.07465465095281473      10.000008835804284       1                        0.15311369655824408      1                        0.07465465095281475
0.2                       1                        0                        10.000026390911916       1                        0.19999999999999998      1                        0
0.3500000000000003        0.913397459621556        0                        9.999958876303328        1                        0.3500000000000004       0.9133974596215563       0
0.33350457537352796       0.8717827083835479       0.11405613566675385      9.999998710195301        1                        0.33350457537352796      0.8717827083835483       0.11405613566675385
0.2849680104030137        0.9481471364361287       0.054968213708665406     9.99997468716728         1                        0.2849680104030137       0.9481471364361285       0.05496821370866542
0.3269212028597674        0.9404860812756742       0.07457726216113882      10.000066477194538       1                        0.3269212028597674       0.9404860812756742       0.07457726216113883
0.30000000000000004       0.9999999999999998       0                        10.000005551609497       1                        0.30000000000000004      0.9999999999999999       0
0.4699183090384842        0.16708467424877013      0.5500765914681232       10.000031398016544       1                        0.46991830903848425      0.16708467424877013      0.5500765914681232
0.30369587186188496       0.23322047778133448      0.49959513404783534      9.999978298376734        1                        0.3036958718618851       0.23322047778133465      0.49959513404783534
0.21422365000447213       0.25914673340057065      0.5101786510984723       9.999992997225148        1                        0.2142236500044721       0.25914673340057076      0.5101786510984726
0.17347316336964316       0.18446882544072155      0.625571083942646        10.000035684524192       1                        0.17347316336964316      0.18446882544072152      0.6255710839426457
0.1206063520805655        0.24346729139877393      0.6399998984005343       9.999998561289582        1                        0.12060635208056554      0.24346729139877402      0.6399998984005341
0.1584773251403028        0.27724813734121506      0.5937126538107981       9.999962626671982        1                        0.15847732514030277      0.27724813734121506      0.593712653810798
0.130960787507536         0.19430268571201448      0.6719631002786578       10.000008701888664       1                        0.130960787507536        0.19430268571201456      0.671963100278658
0.2119376371407718        0.24324444241690274      0.617050971955931        9.999974777824283        1                        0.21193763714077185      0.2432444424169028       0.6170509719559311
0.3958423758696686        0.07123540441979433      0.7042571151921492       10.00005983445894        1                        0.39584237586966853      0.07123540441979431      0.7042571151921492
0.24540232788593563       0.24528194934124425      0.5740735351731521       9.999971445555529        1                        0.24540232788593563      0.24528194934124417      0.5740735351731522
0.31005849960890275       0.2272256489193923       0.5720124828880765       10.000020651972852       1                        0.31005849960890264      0.22722564891939237      0.5720124828880767
0.270017379197029         0.17020037695824156      0.6245476188062908       9.999996457567843        1                        0.27001737919702884      0.1702003769582416       0.6245476188062908
0.2695259100948421        0.13859107522794858      0.7080637522484283       9.99998277412267         1                        0.269525910094842        0.13859107522794864      0.7080637522484282
0.3140273206723031        0.11378549865935475      0.7010357776888129       10.000078519060269       1                        0.31402732067230316      0.11378549865935474      0.7010357776888125
0.3323747349599559        0.14247080883958865      0.7523373869556507       9.999953942164643        1                        0.33237473495995584      0.14247080883958865      0.7523373869556506
0.08318791693314216       0.20845185562829566      0.8959291575383382       9.99996125406038         1                        0.08318791693314216      0.20845185562829555      0.8959291575383378
0.06260544550237558       0.24737778205078842      0.8450067844227032       9.999983145088441        1                        0.06260544550237561      0.24737778205078842      0.8450067844227032
0                         0.2496506538515897       0.9154294850628466       9.999989417710191        1                        0                        0.2496506538515897       0.9154294850628465
0                         0.3002449286899801       0.8306476979948235       10.000008979478539       1                        0                        0.30024492868998015      0.8306476979948235
0                         0.2                      1                        10.000022660899734       1                        0                        0.19999999999999998      1
0.3680895534027158        0.07123540441979433      0.7902993611612078       9.999955730764729        1                        0.3680895534027158       0.07123540441979431      0.790299361161208
0.4038043718454758        0                        0.8282613353667649       9.999973686485516        1                        0.4038043718454759       0                        0.8282613353667649
0.3149603094685703        0.12880721082795457      0.814253040216738        10.000011537079212       1                        0.3149603094685702       0.12880721082795463      0.8142530402167377
0.21181648042607415       0.08362652870250083      0.8943998050617669       9.999917171739696        1                        0.2118164804260741       0.08362652870250081      0.8943998050617666
0.19999999999999996       0                        1                        9.999884934926586        1                        0.19999999999999996      0                        1
0.34263937673357364       0.06283635877906281      0.8552617361215716       9.999920250238809        1                        0.3426393767335736       0.06283635877906281      0.8552617361215716
0.2918022474265146        0.05004639166711712      0.9252275634243082       9.999928147122306        1                        0.29180224742651456      0.05004639166711713      0.925227563424308
0.35368867106315066       0                        0.9106067087483233       9.999954245084092        1                        0.3536886710631508       0                        0.9106067087483235
0.29999999999999993       0                        1                        9.999962799972772        1                        0.2999999999999999       0                        1
0.12097644578049241       0.20628397666629456      0.9479645787691691       9.999924096548325        1                        0.12097644578049238      0.20628397666629453      0.9479645787691693
0.074521872777335         0.15403171511538546      1                        9.999954136257083        1                        0.074521872777335        0.15403171511538544      1
0.15585484444171102       0.09155433376755098      1                        9.99993332556864         1                        0.155854844441711        0.091554333767551        1
0.1611153391539977        0.12940369558627632      0.9382144150069149       9.99995589030301         1                        0.16111533915399778      0.12940369558627637      0.9382144150069146
0.06106438010999861       0.3923068797950142       0.6684487843900287       9.999908929271722        1                        0.06106438010999861      0.3923068797950142       0.6684487843900286
0.10620401456261655       0.3612413743330074       0.6459086008717073       10.000018276280128       1                        0.10620401456261655      0.3612413743330072       0.645908600871707
0.12206798127080024       0.30104300639332365      0.6868349338052103       9.999967572043175        1                        0.1220679812708002       0.3010430063933238       0.6868349338052104
0.08844841164542884       0.29822229771004216      0.7496734622867847       9.999984457654701        1                        0.08844841164542888      0.29822229771004233      0.7496734622867849
0.07552692857390221       0.22575716401704787      0.7816809505186865       9.999976358747466        1                        0.07552692857390221      0.2257571640170478       0.7816809505186862
0.12352961046103492       0.3586187213878734       0.7336699692098864       9.999989566407566        1                        0.12352961046103493      0.35861872138787354      0.7336699692098864
0.16142216840008908       0.46863162096415156      0.41594663375213053      9.999962490378884        1                        0.16142216840008908      0.4686316209641515       0.41594663375213037
0.06943908431335268       0.4890377735418465       0.40669213845532565      9.999976909910016        1                        0.0694390843133527       0.4890377735418465       0.4066921384553257
0                         0.49484826897573103      0.493758891069418        10.000020068750507       1                        0                        0.494848268975731        0.49375889106941806
0.07181852041770444       0.4988029445028717       0.45778657135257567      9.99997559325895         1                        0.07181852041770444      0.4988029445028718       0.45778657135257556
0.12088739561035913       0.5581407854248919       0.4042653924895028       10.000018368348575       1                        0.12088739561035917      0.5581407854248918       0.4042653924895028
0.1051878608920073        0.469363405921525        0.5061172892177344       9.999923830247198        1                        0.10518786089200732      0.46936340592152503      0.5061172892177341
0.20704893131917607       0.4020213081504245       0.4342539874712782       10.00002040031127        1                        0.20704893131917596      0.4020213081504244       0.43425398747127814
0.2525130456020788        0.4252056753589105       0.37216226166910776      10.000023789137725       1                        0.25251304560207893      0.42520567535891035      0.3721622616691078
0.33007428636387987       0.41583636329663876      0.3591793242471965       10.00000237874036        1                        0.33007428636387987      0.41583636329663887      0.3591793242471964
0.33942077228764245       0.28860139817447145      0.4088376817749118       10.000008724307774       1                        0.3394207722876424       0.2886013981744712       0.4088376817749121
0.36983911001939945       0.25744492168317534      0.4729933298124422       10.000000832465888       1                        0.3698391100193994       0.2574449216831755       0.47299332981244235
0.4089498299425445        0.3415603059645817       0.35528447930649826      10.000059080838605       1                        0.4089498299425446       0.34156030596458176      0.3552844793064984
0.3284345324510765        0.36871009805918525      0.4237654136692981       10.000034754201058       1                        0.3284345324510766       0.36871009805918514      0.4237654136692981
0.2677417318851263        0.3853657031048049       0.42900970057028814      9.999922805960043        1                        0.2677417318851262       0.38536570310480484      0.4290097005702881
0.3961043435921512        0.3244452124205256       0.4295834078730103       9.999961606270366        1                        0.39610434359215135      0.32444521242052554      0.42958340787301025
0.1833623903282677        0.45435866586256424      0.4890348093235309       9.999953213671693        1                        0.1833623903282677       0.45435866586256424      0.489034809323531
0.2008745743052836        0.5493127570001987       0.4113039187661797       10.000015975882176       1                        0.20087457430528363      0.5493127570001985       0.4113039187661797
0.270303511146379         0.5059611362276201       0.37704573857193774      10.000026846536658       1                        0.27030351114637896      0.5059611362276203       0.37704573857193774
0.26745520399507905       0.3110493256083217       0.470063409410736        10.000011332758596       1                        0.26745520399507894      0.31104932560832155      0.47006340941073604
0.24791923495960855       0.39585989015378886      0.4922463480320978       10.000052099948466       1                        0.2479192349596086       0.39585989015378875      0.4922463480320978
0.22078727657484226       0.3203635217242469       0.5235994515400133       10.000039686938004       1                        0.22078727657484237      0.320363521724247        0.5235994515400133
0.20203607840817717       0.4115558375445867       0.5388440479904124       9.999988710129685        1                        0.20203607840817725      0.4115558375445865       0.5388440479904125
0.16818382330251866       0.37026281301990155      0.5810904343898832       10.000009290763604       1                        0.1681838233025186       0.37026281301990177      0.5810904343898834
0.12395961747980425       0.4211197904416826       0.5396288647498877       9.999992253868163        1                        0.1239596174798043       0.42111979044168274      0.539628864749888
0.2310274257664739        0.46979660894116154      0.5091158745303381       9.999967451615257        1                        0.2310274257664738       0.4697966089411613       0.5091158745303381
0.060759237233364086      0.3968180281163913       0.7283292276745893       10.000034157485807       1                        0.060759237233364086     0.3968180281163914       0.7283292276745891
0                         0.4465625121298971       0.746882416250202        10.000044504564395       1                        0                        0.446562512129897        0.7468824162502018
0.056678664452649366      0.7423583819393421       0.3800886408071662       9.999992593876705        1                        0.056678664452649366     0.7423583819393419       0.3800886408071662
0.24496378550908632       0.7334238893359872       0.2279901074760618       10.000003448047162       1                        0.2449637855090864       0.7334238893359877       0.22799010747606188
0.23605806023965342       0.8095520162517629       0.16047815142499391      9.999996723749378        1                        0.2360580602396534       0.809552016251763        0.1604781514249939
0.25404637266511493       0.6624332679027313       0.24672003493570233      9.999977023026624        1                        0.2540463726651148       0.6624332679027313       0.24672003493570224
0.18578204955885122       0.6978758734901142       0.2710213591885059       9.999990824736061        1                        0.18578204955885128      0.6978758734901139       0.27102135918850584
0.2636542740027629        0.5945733103382667       0.2627034646279358       10.000037126377464       1                        0.26365427400276276      0.5945733103382663       0.262703464627936
0.24696207981496404       0.5578967599359859       0.3133004843058469       9.999995708607257        1                        0.24696207981496407      0.5578967599359858       0.3133004843058469
0.4833210971724748        0.7346788794878961       0.07947363858129898      10.000023761041975       1                        0.4833210971724747       0.7346788794878959       0.07947363858129904
0.39698366459076295       0.7974388774301001       0.1359603820113421       9.999945034906611        1                        0.3969836645907632       0.7974388774300999       0.13596038201134208
0.44015238088161884       0.7660588784589981       0.10771701029632055      9.99999631725343         1                        0.4401523808816189       0.7660588784589984       0.10771701029632055
0.32807238785215015       0.6988238040778576       0.22546495152123242      10.00003932256588        1                        0.32807238785215015      0.6988238040778576       0.2254649515212324
0.42266844393387343       0.7251865084314947       0.15894727716259796      9.999991903734538        1                        0.4226684439338732       0.7251865084314949       0.15894727716259804
0.054707024009245         0.9292773190980036       0.33419591483044775      10.000006243485142       1                        0.054707024009245        0.9292773190980036       0.33419591483044786
0                         0.9114112501371731       0.3535190194182991       9.999998489269107        1                        0                        0.9114112501371731       0.35351901941829916
0                         1                        0.29999999999999993      9.999953279249619        1                        0                        1                        0.2999999999999999
0                         0.8352364904395452       0.3090641468284499       9.999973906230439        1                        0                        0.8352364904395452       0.30906414682844996
0.0819190862329723        0.9359590626006868       0.27538634668290335      10.000005431900469       1                        0.08191908623297232      0.9359590626006873       0.2753863466829033
0.07161048045212216       0.887880121535493        0.3469500735595575       10.000002369477688       1                        0.07161048045212218      0.8878801215354932       0.3469500735595575
0                         0.8276408639040664       0.4023493110780487       9.999961023683971        1                        0                        0.8276408639040667       0.4023493110780487
0.194317249696416         0.9063786509661131       0.18634159967054534      9.999951624882822        1                        0.19431724969641598      0.9063786509661128       0.1863415996705454
0.14298252544397225       0.9531893254830566       0.17110591026040992      10.000065034345493       1                        0.14298252544397225      0.953189325483056        0.17110591026040997
0.25399897058665627       0.8712667043321222       0.17296888645435074      9.999948605569328        1                        0.2539989705866564       0.8712667043321219       0.1729688864543508
0.6578030162284131        0.5229561557828585       0.06279351466995615      10.000007083481826       1                        0.6578030162284132       0.5229561557828587       0.06279351466995614
0.6995734932157526        0.34292643988100946      0.14147649333388104      10.000048820041064       1                        0.6995734932157522       0.3429264398810093       0.1414764933338811
0.674688255520405         0.36963068122536397      0.10987403868097104      10.000038305070541       1                        0.6746882555204047       0.36963068122536386      0.10987403868097102
0.7415280202877105        0.38554264284577866      0.08014145919991285      10.00002216821494        1                        0.7415280202877103       0.3855426428457786       0.08014145919991283
0.7035118269316786        0.4444890895187403       0.08446115119018228      10.000008335438517       1                        0.7035118269316789       0.44448908951874005      0.08446115119018228
0.77933463056335          0.4418619433311479       0.08446115119018228      9.999947231570564        1                        0.7793346305633498       0.44186194333114776      0.08446115119018228
0.6342786179605807        0.24660135129496247      0.2538243803343133       10.000003505819361       1                        0.6342786179605807       0.24660135129496236      0.25382438033431326
0.5756249908199264        0.2707506144048898       0.2630782243883503       10.000076598533877       1                        0.5756249908199265       0.2707506144048898       0.2630782243883504
0.5844472736399061        0.230918859207           0.3127950327305838       10.000017642612326       1                        0.5844472736399061       0.23091885920699998      0.3127950327305839
0.6552159988916838        0.20371959989847316      0.29342895392208385      9.999970744672023        1                        0.655215998891684        0.20371959989847324      0.29342895392208396
0.6761533798227869        0.16083784850198382      0.33303352750985443      10.000022946620017       1                        0.6761533798227872       0.1608378485019838       0.3330335275098546
0.5225682615054077        0.4267225383824443       0.18195372857405148      9.999998847292666        1                        0.5225682615054075       0.42672253838244434      0.18195372857405143
0.5755681387237964        0.40076328963697017      0.18382420080836995      10.000051169213044       1                        0.5755681387237961       0.40076328963697         0.18382420080837003
0.6456551010287389        0.41003802009031864      0.14392631015229865      10.00003180689565        1                        0.6456551010287389       0.4100380200903188       0.1439263101522986
0.5917367088417252        0.47714960029962783      0.14637612697071625      10.000030853183052       1                        0.5917367088417255       0.47714960029962766      0.14637612697071625
0.6758419243530757        0.48157354928539925      0.13415492439649992      10.000011557079501       1                        0.6758419243530759       0.48157354928539925      0.13415492439649992
0.2427651631767312        0.4875975412834459       0.4384407538971741       9.999956778225437        1                        0.24276516317673116      0.48759754128344573      0.438440753897174
0.3519992542449789        0.6286757029738549       0.2659710472788472       10.000048636799487       1                        0.3519992542449789       0.6286757029738547       0.2659710472788471
0.39545478705261633       0.685791637716908        0.2033516127547637       10.00002235105416        1                        0.39545478705261616      0.6857916377169081       0.20335161275476382
0.4622287935595173        0.423833640531716        0.22821572433511855      10.000006793738477       1                        0.46222879355951757      0.4238336405317161       0.22821572433511858
0.4763093063349661        0.48490203527485876      0.1857449273416019       10.000082066552775       1                        0.4763093063349663       0.4849020352748586       0.185744927341602
0.5220908646512712        0.4750371126573182       0.1351030392658921       10.000012928470474       1                        0.5220908646512713       0.47503711265731835      0.13510303926589215
0.5236205050667178        0.5567651007000329       0.16171265593363396      10.000067573285996       1                        0.5236205050667178       0.5567651007000329       0.16171265593363401
0.4104120202638079        0.5942880895560253       0.21748461407151937      10.000023779928323       1                        0.41041202026380763      0.5942880895560253       0.21748461407151942
0.33558075744854043       0.584650442100379        0.303049127256569        10.000056768760183       1                        0.33558075744854043      0.5846504421003792       0.3030491272565692
0.48640396878692616       0.5850040462843583       0.19637568986935933      9.999994097621272        1                        0.48640396878692604      0.5850040462843586       0.19637568986935933
0.37945663352405573       0.5472457938457453       0.2581744847748248       10.000002163369503       1                        0.37945663352405573      0.547245793845745        0.25817448477482485
0.3786402242268322        0.47571545304937063      0.2498690392141268       10.000037449194794       1                        0.3786402242268323       0.4757154530493708       0.24986903921412676
0.4380933239984019        0.5360473449080932       0.19032271338077972      10.00003791584271        1                        0.4380933239984018       0.5360473449080932       0.19032271338077977
0.37843471916904686       0.4838443848300936       0.30843403586478085      10.000025370217148       1                        0.37843471916904664      0.4838443848300939       0.30843403586478085
0.44031858354688547       0.49900400324142186      0.23776259248965198      9.9999802142688          1                        0.4403185835468853       0.49900400324142186      0.23776259248965198
0.442543843095369         0.46196066157475035      0.28520247159852424      9.999967835823622        1                        0.4425438430953691       0.4619606615747502       0.2852024715985243
0.6787481801795053        0.27549843065211677      0.2732320125112859       9.999993566051023        1                        0.6787481801795056       0.2754984306521167       0.27323201251128604
0.7395809961031395        0.515975506601289        0.06977738345532293      9.99997756157054         1                        0.7395809961031395       0.5159755066012892       0.06977738345532296
0.818674139371379         0.49215336411001614      0.06977738345532293      10.00000615726091        1                        0.8186741393713786       0.4921533641100162       0.06977738345532296
0.7461852748684106        0.5447138573202273       0                        9.999987333899005        1                        0.7461852748684106       0.5447138573202271       0
0.8277192734173845        0.4996113259435175       0                        10.000028795017478       1                        0.8277192734173846       0.4996113259435174       0
0.913397459621556         0.45                     0                        9.999988439078098        1                        0.9133974596215563       0.4500000000000001       0
0.6917775290165843        0.5735451129480333       0.05934220745859688      10.000039330956737       1                        0.691777529016584        0.5735451129480331       0.059342207458596884
0.618012056946727         0.5989408672522836       0.06279351466995615      10.000038697731318       1                        0.6180120569467269       0.5989408672522833       0.06279351466995613
0.6743552264040626        0.6697652444563269       0                        9.9999926583903          1                        0.6743552264040626       0.669765244456327        0
0.5708162810067224        0.5778529839761583       0.11225308530179504      10.000024287653927       1                        0.5708162810067223       0.5778529839761578       0.112253085301795
0.5798967494879879        0.7494929066673462       0.06394989250157541      10.000006081310254       1                        0.5798967494879879       0.749492906667346        0.0639498925015754
0.6094034415643342        0.6885662204545474       0.07081960378619036      9.999972611138297        1                        0.609403441564334        0.6885662204545473       0.07081960378619036
0.6339587870303954        0.7450031003096131       0                        9.999963378566367        1                        0.6339587870303954       0.7450031003096134       0
0.6853058427086809        0.3992333347039069       0.19763845172207894      10.000002229416243       1                        0.6853058427086809       0.39923333470390676      0.19763845172207886
0.6469896146772551        0.5482553293074265       0.1255870293399123       9.999930276677029        1                        0.6469896146772549       0.5482553293074267       0.12558702933991228
0.6437374240793012        0.6092229410354888       0.1336131184561465       9.999993982808139        1                        0.6437374240793012       0.6092229410354887       0.1336131184561465
0.7486704938119411        0.6400342775899064       0                        10.000001331796737       1                        0.7486704938119412       0.6400342775899065       0
0.7589025686939822        0.22513292410609836      0.252870188546085        10.000012915839418       1                        0.7589025686939823       0.22513292410609842      0.25287018854608506
0.7093471130933257        0.28060543435571444      0.2188259176483915       10.000010567786862       1                        0.7093471130933259       0.28060543435571444      0.21882591764839152
0.6899332370725663        0.3441136031906799       0.2388528029172839       10.000026496177632       1                        0.689933237072566        0.3441136031906798       0.23885280291728397
0.8976389460383639        0.3127267289273563       0.08095755967401487      9.999988853577467        1                        0.8976389460383639       0.3127267289273563       0.08095755967401487
0.7931173643718742        0.3610776966909003       0.13785508942041022      9.999995823651549        1                        0.7931173643718739       0.36107769669090034      0.13785508942041022
0.7289055318375909        0.35942540465474315      0.19475261916680564      10.000054156001164       1                        0.7289055318375905       0.3594254046547433       0.19475261916680572
0.9000293475747758        0.4146144767503956       0.0671168427534697       10.000012282878014       1                        0.9000293475747759       0.4146144767503957       0.06711684275346969
1                         0.39999999999999997      0                        10.000054809118351       1                        1                        0.39999999999999997      0
0.8396819890690629        0.4282382100407718       0.07578899697182596      10.000018389276237       1                        0.8396819890690632       0.4282382100407718       0.07578899697182596
0.9447279145582184        0.4932617342825842       0.053276125832924584     10.000048539776094       1                        0.9447279145582181       0.4932617342825842       0.053276125832924605
0.913397459621556         0.5499999999999998       0                        10.000035651241085       1                        0.9133974596215563       0.5499999999999998       0
1.0000000000000002        0.49999999999999994      0                        10.000124866230706       1                        1.0000000000000002       0.49999999999999994      0
0.7941990998937412        0.29275149177726845      0.1852611066198662       10.00001359305688        1                        0.7941990998937416       0.2927514917772686       0.18526110661986628
0.8384920031557145        0.316506067563657        0.14988510438421995      10.000017677178464       1                        0.8384920031557145       0.31650606756365707      0.14988510438421987
0.913555265495439         0.07016416717911435      0.30633823867473303      9.999985046582077        1                        0.9135552654954392       0.07016416717911438      0.30633823867473287
1                         0                        0.29999999999999993      10.000038568674235       1                        1                        0                        0.2999999999999999
0.9137130713693218        0.1403283343582287       0.2626764773494661       9.999994473512807        1                        0.9137130713693221       0.14032833435822875      0.262676477349466
1                         0.0835947758721096       0.2540156787217057       10.000019073930845       1                        1                        0.0835947758721096       0.2540156787217058
0.8866612355279956        0.37922895350079117      0.1342336855069394       10.00003287857715        1                        0.8866612355279956       0.3792289535007913       0.13423368550693937
0.8838666419395549        0.2719344384364138       0.16191511934802968      10.000009057967464       1                        0.883866641939555        0.27193443843641396      0.16191511934802968
0.8987898566544383        0.20613138639732126      0.2122957983487479       10.00002667130888        1                        0.8987898566544387       0.2061313863973213       0.212295798348748
0.9419333209697774        0.26732573571541357      0.12486576807054109      9.999983409144845        1                        0.9419333209697774       0.26732573571541357      0.12486576807054113
1                         0.2627170329944134       0.08781641679305238      9.999985703568742        1                        1                        0.26271703299441335      0.0878164167930524
1                         0.1587649746278426       0.2041160977042935       10.000006489948353       1                        1                        0.1587649746278426       0.2041160977042935
1                         0.2330341524733737       0.1618596651139039       10.000022059708762       1                        1                        0.23303415247337378      0.16185966511390387
1                         0.3551488517571463       0.08504195385214786      10.000005876204806       1                        1                        0.35514885175714633      0.08504195385214786
0.9433306177639977        0.34534438169440324      0.15168253778698895      10.00003050458454        1                        0.9433306177639977       0.3453443816944031       0.15168253778698892
0.9433306177639977        0.4146144767503956       0.11041811294269169      10.000037544196973       1                        0.9433306177639977       0.4146144767503957       0.11041811294269173
0.6160854459033219        0.11430011260791353      0.4935358788945748       10.000020943301976       1                        0.6160854459033218       0.11430011260791356      0.4935358788945747
0.8254804711537709        0.2437833881772296       0.24353454218602782      10.000017198953232       1                        0.8254804711537709       0.24378338817722958      0.2435345421860279
0.9277832597001044        0.2041288391133932       0.2515068360329917       10.000020275845117       1                        0.9277832597001046       0.20412883911339327      0.2515068360329916
0.8274261427386437        0.1218916940886148       0.32123685699463866      10.000004029755644       1                        0.8274261427386439       0.12189169408861479      0.3212368569946385
0.7348759890990798        0.11274595965222092      0.38238132120290647      10.000015524396193       1                        0.7348759890990803       0.11274595965222099      0.3823813212029065
0.7871292769814393        0.0609458470443074       0.3374087968678176       9.999930753869135        1                        0.787129276981439        0.060945847044307395     0.33740879686781766
0.8693535623134373        0.20957802146267535      0.293634734721676        10.000024465846984       1                        0.8693535623134375       0.20957802146267537      0.2936347347216761
0.913555265495439         0.05212355861676467      0.4178092142486597       9.999993254727555        1                        0.9135552654954391       0.05212355861676466      0.41780921424865974
0.913397459621556         0                        0.45                     9.999977290504054        1                        0.9133974596215562       0                        0.4500000000000001
1                         0                        0.39999999999999997      9.999978201417912        1                        1                        0                        0.39999999999999997
0.9132266534731036        0.17537265474812105      0.3437349272573242       10.000037896707841       1                        0.9132266534731034       0.17537265474812103      0.343734927257324
1                         0.08660254037844396      0.35000000000000003      10.000019456500588       1                        1                        0.08660254037844399      0.3499999999999999
0.7939687469921352        0.06778903224136092      0.45337064570727065      10.000001431804748       1                        0.7939687469921352       0.06778903224136096      0.4533706457072705
0.8267949192431123        0                        0.5                      9.999992314855078        1                        0.8267949192431123       0                        0.5
0.7196341400853281        0.09932650196243989      0.4453786594242987       10.000042976856827       1                        0.719634140085328        0.09932650196243988      0.44537865942429883
0.9137130713693218        0.10424711723352939      0.38561842849731937      9.999986555437099        1                        0.9137130713693221       0.10424711723352938      0.38561842849731925
0.8538409091807285        0.08601807473744517      0.419494537102295        10.000017473481744       1                        0.8538409091807286       0.08601807473744522      0.4194945371022952
0.8627794701971596        0.08180912715269563      0.4685238913406131       10.000030169335178       1                        0.8627794701971597       0.08180912715269567      0.4685238913406131
0.913397459621556         0                        0.5499999999999998       9.999972654780693        1                        0.9133974596215563       0                        0.5499999999999998
0.257354151583113         0.11830975166877336      0.8133165689973572       9.99992736711509         1                        0.2573541515831128       0.11830975166877342      0.8133165689973577
0.2171624191890414        0.12147589052122623      0.7504644445168891       9.999988452320249        1                        0.2171624191890415       0.12147589052122629      0.7504644445168897
0.1274121227558566        0.1856948016941545       0.7973919733142498       9.999999394968274        1                        0.12741212275585664      0.18569480169415445      0.7973919733142493
0.19176912652766287       0.14436447396311394      0.8134466372653595       9.999975223319359        1                        0.19176912652766287      0.144364473963114        0.8134466372653594
0.2975458839771846        0.11514361281632055      0.8761686934778253       9.99999736635549         1                        0.29754588397718457      0.11514361281632055      0.8761686934778258
0.17689682329085768       0.2429517810424524       0.7528576600276596       9.999992354427315        1                        0.1768968232908578       0.24295178104245257      0.7528576600276592
0.22345710124394336       0.20657607900034697      0.6887026394169752       10.000014090903997       1                        0.22345710124394338      0.20657607900034688      0.6887026394169754
0.22862460092160763       0.20549258980590973      0.7510746383411674       9.999970238364835        1                        0.22862460092160758      0.2054925898059098       0.7510746383411674
0.16637583386628432       0.16725305740500165      0.8764288300138299       9.99995514513535         1                        0.16637583386628432      0.16725305740500165      0.8764288300138293
0.1457933624355178        0.23052333855042556      0.8649835470090783       9.999969794175595        1                        0.14579336243551783      0.23052333855042564      0.8649835470090783
0.12437025073289307       0.32620617054186135      0.7936041166071066       10.000009128829292       1                        0.12437025073289303      0.32620617054186146      0.7936041166071065
0.06260544550237558       0.34663282912199606      0.8414448266057746       10.000019765063714       1                        0.06260544550237561      0.3466328291219962       0.8414448266057746
0                         0.3500000000000003       0.913397459621556        10.000011329137234       1                        0                        0.3500000000000004       0.9133974596215563
0                         0.3994720385481428       0.8293513892072223       10.000008652070404       1                        0                        0.3994720385481428       0.8293513892072221
0.06168234136786983       0.3717254286191936       0.784887027140182        10.000030123786438       1                        0.061682341367869827     0.3717254286191938       0.7848870271401824
0.42944216318623685       0.14247080883958865      0.6664312477544737       9.99999533744791         1                        0.42944216318623685      0.14247080883958865      0.6664312477544738
0.2597420865242098        0.2657902665959714       0.6657230693831292       9.999975186404042        1                        0.25974208652420994      0.26579026659597127      0.6657230693831291
0.3057438839657067        0.30077744336627016      0.515479919771324        9.999978050295189        1                        0.30574388396570656      0.30077744336627005      0.5154799197713237
0.34648353988823777       0.2698088114289638       0.5258359218960971       9.999923911526595        1                        0.34648353988823793      0.26980881142896374      0.525835921896097
0.3497297711916329        0.1563355928989151       0.6454894332803823       9.999995528516271        1                        0.34972977119163295      0.15633559289891516      0.6454894332803822
0.41987870952894185       0.21226479796597275      0.5115349606402827       9.999999892417684        1                        0.4198787095289417       0.21226479796597267      0.5115349606402829
0.3747146713318699        0.20916934849754026      0.5699514306030009       10.000049673753226       1                        0.37471467133187003      0.2091693484975403       0.5699514306030011
0.6509609423075418        0.32880180172661666      0.2829529866677621       10.000047434451936       1                        0.6509609423075418       0.3288018017266167       0.28295298666776225
0.5668027079999465        0.3105823696027796       0.2133614160461168       10.000055278941174       1                        0.5668027079999463       0.3105823696027796       0.2133614160461167
0.5926915025499984        0.38052045174988003      0.24007750558703506      10.000034390529168       1                        0.5926915025499984       0.38052045174988         0.24007750558703503
0.5212560047501508        0.36289356385677335      0.23672886600859766      10.000013544547501       1                        0.5212560047501509       0.36289356385677335      0.2367288660085976
0.46850266331430795       0.3751600650971372       0.3010917251959045       10.000002216318206       1                        0.4685026633143079       0.37516006509713745      0.3010917251959046
0.43587719637719635       0.2870300596675719       0.2785010210668078       10.000073151945639       1                        0.4358771963771966       0.2870300596675719       0.27850102106680796
0.41758283560814513       0.3412641369322299       0.3043182728941792       10.000046542270702       1                        0.417582835608145        0.34126413693222984      0.30431827289417934
0.519943747994894         0.29906458933110247      0.2915040034431438       10.000034993405109       1                        0.519943747994894        0.2990645893311025       0.291504003443144
0.5346159293192315        0.21523636711903749      0.3717656851268543       10.000025225236778       1                        0.5346159293192317       0.2152363671190374       0.37176568512685454
0.518895497881619         0.2756054664789908       0.3640104584162902       9.999980078797156        1                        0.518895497881619        0.27560546647899087      0.3640104584162902
0.5749715706138228        0.2976520478036159       0.31394314668612505      9.999973680919107        1                        0.5749715706138226       0.2976520478036158       0.31394314668612494
0.43690532563317896       0.2957888480781115       0.4795678308933273       9.999943295097896        1                        0.43690532563317885      0.29578884807811157      0.4795678308933271
0.46555247807037603       0.2667941586318061       0.44153151355240655      9.99994776456673         1                        0.4655524780703763       0.2667941586318063       0.4415315135524067
0.4483103257550323        0.2959557034146951       0.3673946604429696       9.99998604366619         1                        0.44831032575503243      0.29595570341469496      0.3673946604429694
0.4608355808306205        0.37054630031506647      0.37434819207510295      10.00000463846652        1                        0.46083558083062043      0.3705463003150663       0.37434819207510306
0.42979462173273053       0.4403715200245242       0.34860826698583797      10.000009958067508       1                        0.4297946217327305       0.440371520024524        0.34860826698583813
0.3813028858435242        0.47727573028201614      0.3736989907751947       9.999994263917602        1                        0.38130288584352434      0.47727573028201614      0.3736989907751946
0.417045400370092         0.41878237847429794      0.41201406237315175      10.000024085212885       1                        0.4170454003700919       0.41878237847429806      0.4120140623731518
0.4602171043702005        0.4413941034732828       0.3987862020655676       10.000073549726164       1                        0.4602171043702004       0.44139410347328284      0.3987862020655675
0.45742274743228384       0.06227687327211963      0.7308265836740425       10.00001239171845        1                        0.45742274743228417      0.06227687327211966      0.7308265836740424
0.45285505557624883       0                        0.7427833247032277       10.00003400564568        1                        0.45285505557624883      0                        0.7427833247032278
0.5478863794973888        0                        0.7471411995870171       9.999967136961306        1                        0.5478863794973889       0                        0.7471411995870171
0.8765873272059268        0.0472767662560304       0.5633563878374853       9.999996846525232        1                        0.8765873272059268       0.047276766256030396     0.5633563878374853
0.8302086093612233        0                        0.5932208829607916       9.99999589990429         1                        0.8302086093612233       0                        0.5932208829607915
0.8042034996059533        0.05252795187480831      0.5306663724580882       9.999970535721433        1                        0.8042034996059537       0.052527951874808305     0.5306663724580881
0.7452266124075385        0                        0.5439784709682653       10.000036432603512       1                        0.7452266124075385       0                        0.5439784709682653
0.5145142152258616        0.11479233712438511      0.5540511098667489       9.999954647014988        1                        0.5145142152258617       0.11479233712438516      0.5540511098667485
0.7043922910715764        0.08590704427265884      0.508375997645691        10.000016999809047       1                        0.7043922910715764       0.08590704427265887      0.5083759976456913
0.6457477626907695        0.06048476953191746      0.5584292590959405       9.999974795564501        1                        0.6457477626907695       0.06048476953191749      0.5584292590959409
0.6538593286866798        0                        0.5913099360069056       9.999959563572883        1                        0.6538593286866801       0                        0.5913099360069056
0.6154388922006366        0.11812108336714824      0.5742296926634086       9.999958452398745        1                        0.6154388922006363       0.11812108336714823      0.5742296926634084
0.7651081428775928        0.18643011717211902      0.36408190165060444      9.999973215962472        1                        0.7651081428775925       0.1864301171721191       0.36408190165060444
0.7964872641436589        0.21753497038355862      0.30652622132439356      10.000012793009397       1                        0.7964872641436588       0.2175349703835586       0.3065262213243934
0.7236209659738803        0.2254919193044419       0.31941770792711105      10.000071072704886       1                        0.7236209659738804       0.2254919193044419       0.31941770792711116
0.7686658460226174        0.2768236914336339       0.2930078621019024       10.000024075194231       1                        0.7686658460226176       0.27682369143363394      0.2930078621019023
0.7543349342588572        0.148798732149058        0.4348869420987561       10.00008998847612        1                        0.7543349342588571       0.148798732149058        0.43488694209875617
0.6426870255070104        0.14512528151978385      0.4230600771449785       9.99999068729374         1                        0.6426870255070105       0.14512528151978374      0.4230600771449784
0.6897966969891144        0.141706109132036        0.4702716896888893       10.00001102194268        1                        0.6897966969891146       0.141706109132036        0.4702716896888893
0.6217614607939896        0.2072004504316542       0.3953008736681944       9.999988158770122        1                        0.6217614607939895       0.20720045043165408      0.3953008736681944
0.5899949969800825        0.24845107904460745      0.3751374695547445       10.000003390201673       1                        0.5899949969800828       0.24845107904460748      0.37513746955474425
0.718592456211591         0.19365570901975143      0.41826532832640034      10.000053317574627       1                        0.718592456211591        0.19365570901975138      0.4182653283264005
0.5723043815657615        0.16424164944110745      0.45321847317820907      10.00000424252599        1                        0.5723043815657612       0.16424164944110756      0.4532184731782091
0.5651219467450984        0.12500000000000003      0.5302017523332454       9.99994339306544         1                        0.5651219467450983       0.12500000000000003      0.5302017523332451
0.5211113453021229        0.16566316184493882      0.5016475323231661       10.000072110715298       1                        0.5211113453021228       0.1656631618449388       0.5016475323231658
0.5189284298180687        0.21551790403645682      0.4473749933653078       10.000002658411669       1                        0.5189284298180685       0.21551790403645674      0.44737499336530806
0.4340249666968336        0.1897319394256594       0.5972636194699205       9.999948817797447        1                        0.4340249666968336       0.1897319394256594       0.5972636194699205
0.5139058458323413        0.21291003933428226      0.5709080376366631       10.000003789406966       1                        0.5139058458323411       0.21291003933428235      0.570908037636663
0.5864675949916194        0.0689582590414959       0.6500061871535548       10.000007493226853       1                        0.5864675949916194       0.0689582590414959       0.6500061871535547
0.5950291961773063        0                        0.6700579117960738       9.999964929788197        1                        0.5950291961773064       0                        0.670057911796074
0.49333526206179723       0.17029453035377853      0.6245758083368401       9.999992970612071        1                        0.49333526206179756      0.17029453035377853      0.6245758083368398
0.5535987937611234        0.127181941661117        0.6008377662985331       9.999998083143748        1                        0.5535987937611234       0.12718194166111696      0.6008377662985329
0.5145742990920232        0.08821122867390714      0.6957770628002043       9.999975611349573        1                        0.5145742990920236       0.08821122867390717      0.6957770628002042
0.46199043928831884       0.12455374654423926      0.7188698426448574       9.999987804016873        1                        0.461990439288319        0.1245537465442393       0.7188698426448572
0.4044553056382757        0.1393363155697597       0.7704124944210023       9.99998822341051         1                        0.40445530563827586      0.13933631556975976      0.7704124944210023
0.5576479639836182        0.06058858026740123      0.738776638775407        9.999981658663934        1                        0.557647963983618        0.06058858026740124      0.7387766387754072
0.5030398119854885        0.1058697016958978       0.7689000178122657       9.999989466453648        1                        0.5030398119854884       0.10586970169589778      0.7689000178122657
0.4313141343965584        0.08893604433434212      0.7808038993482245       10.000010309218533       1                        0.43131413439655836      0.08893604433434212      0.7808038993482248
0.4869842768126895        0.06070962663720515      0.826262802948957        9.999999148798212        1                        0.4869842768126897       0.060709626637205145     0.826262802948957
0.4998297735050477        0                        0.8278180334253449       9.999977999619196        1                        0.49982977350504776      0                        0.8278180334253449
0.42745217406309644       0.06810091114996543      0.8511350344905515       10.000038172934389       1                        0.4274521740630963       0.06810091114996544      0.8511350344905518
0.5912113269163202        0.8306854786426908       0                        9.999984895492302        1                        0.5912113269163202       0.8306854786426908       0
0.5503900574116416        0.8104195928801452       0.05708018121696047      10.00003653122289        1                        0.5503900574116417       0.8104195928801449       0.05708018121696049
0.45                      0.913397459621556        0                        10.000040685573273       1                        0.4500000000000001       0.9133974596215563       0
0.5499999999999999        0.913397459621556        0                        9.999957088728259        1                        0.5499999999999999       0.9133974596215563       0
0.4                       1                        0                        10.000022737809374       1                        0.39999999999999997      1                        0
0.4555043012917102        0.6363806011004379       0.17704918489655166      9.999999458609226        1                        0.45550430129171054      0.6363806011004379       0.17704918489655166
0.4694126992320925        0.685529740294167        0.12826141173892533      9.999947646857704        1                        0.46941269923209267      0.6855297402941667       0.12826141173892533
0.5271303976651828        0.6588295404468243       0.13495030965565305      10.000034734540515       1                        0.5271303976651828       0.6588295404468242       0.13495030965565305
0.5494400280012758        0.7187888704557027       0.13042483272216457      10.00001802527525        1                        0.5494400280012761       0.7187888704557027       0.13042483272216462
0.5848480960982729        0.6321293405994816       0.14163920757238072      10.000006456997982       1                        0.5848480960982733       0.6321293405994818       0.14163920757238072
0.3095228306006642        0.6686501652892253       0.29299090580027304      10.000013780630335       1                        0.30952283060066416      0.6686501652892253       0.2929909058002729
0.0999325465214749        0.7985190981671468       0.2228022793394831       10.000002197798864       1                        0.09993254652147494      0.798519098167147        0.22280227933948302
0.07715066607915118       0.8719181252013737       0.2862757890396146       9.999985690079413        1                        0.07715066607915119      0.8719181252013742       0.28627578903961476
0.04996627326073745       0.8168777943033461       0.2659332130839665       9.999918370660243        1                        0.04996627326073746      0.8168777943033461       0.2659332130839666
0.18562259898476943       0.8127573019322262       0.2109704343646373       9.999955832145975        1                        0.1856225989847694       0.8127573019322262       0.21097043436463728
0.14168775439135553       0.8634740516594177       0.20412119635457954      9.99997476593609         1                        0.14168775439135559      0.8634740516594177       0.2041211963545795
0.08132863014299109       0.828268357548284        0.3312538099378362       9.999953228692078        1                        0.08132863014299112      0.828268357548284        0.3312538099378362
0.15765439714034316       0.9042387887521388       0.2563083912038067       9.999958361561394        1                        0.1576543971403432       0.9042387887521387       0.25630839120380683
0.09104677983386002       0.768656593561075        0.3155575463161149       9.999977680857905        1                        0.09104677983386007      0.7686565935610755       0.315557546316115
0.13841441469635565       0.7332662335255945       0.2932894527523104       9.999993114115753        1                        0.13841441469635563      0.7332662335255943       0.2932894527523102
0.1542341442641724        0.7062588660161689       0.36297675969851945      10.000014990621574       1                        0.1542341442641724       0.7062588660161689       0.3629767596985196
0.21064027561026094       0.7074417468103823       0.3414937620101091       9.999988482311954        1                        0.21064027561026094      0.7074417468103822       0.3414937620101091
0.3324318596012638        0.5221744382003501       0.38959896801980737      10.000010665775264       1                        0.3324318596012639       0.5221744382003503       0.3895989680198076
0.38804665062027893       0.5426115108871629       0.3413971978240217       9.999981527416944        1                        0.38804665062027877      0.5426115108871629       0.34139719782402167
0.053914247258990036      0.6904029298029999       0.42979627176388335      10.000043042142941       1                        0.05391424725899004      0.6904029298029998       0.4297962717638833
0                         0.7438379873977169       0.4484133191238894       9.999958773336315        1                        0                        0.7438379873977167       0.44841331912388943
0.07449984544465883       0.5594355638238381       0.45033301140072735      9.999997923595757        1                        0.07449984544465883      0.5594355638238381       0.4503330114007274
0.10281672325699356       0.6241244900635451       0.43895577195886726      10.000022669298655       1                        0.1028167232569936       0.6241244900635453       0.4389557719588673
0.05140836162849678       0.646370453921558        0.46830637710857886      9.999945936450343        1                        0.0514083616284968       0.6463704539215579       0.468306377108579
0                         0.5874222481745034       0.4520567789549887       10.000007847695262       1                        0                        0.5874222481745034       0.4520567789549886
0                         0.6686164177795709       0.4976569822582904       10.000010412986901       1                        0                        0.6686164177795709       0.4976569822582905
0                         0.5914564308184241       0.5478908106203892       10.000014603154092       1                        0                        0.5914564308184243       0.5478908106203892
0.07061926319663227       0.47346808869536045      0.5670029142993612       10.000025915740183       1                        0.07061926319663227      0.4734680886953607       0.5670029142993616
0.06136952298663313       0.4616235981696881       0.6458418636879776       10.000001162358691       1                        0.061369522986633125     0.46162359816968807      0.6458418636879774
0.12273904597326621       0.43063151614841655      0.6248990277765782       10.000004227504077       1                        0.12273904597326622      0.4306315161484165       0.6248990277765784
0                         0.5223735425389557       0.5943532737916614       9.999988807961728        1                        0                        0.5223735425389558       0.5943532737916614
0.2192657536400504        0.6325262540086692       0.32250997643719964      10.000020871172566       1                        0.21926575364005021      0.6325262540086695       0.32250997643719964
0.25274945772124957       0.5671766345272243       0.37399859368589333      10.000010056497606       1                        0.2527494577212497       0.567176634527224        0.3739985936858935
0.23420322337860483       0.61647992653003         0.414781577355536        10.000024403420793       1                        0.2342032233786048       0.6164799265300298       0.41478157735553617
0.11335732890529873       0.7365307197547207       0.40312620357892975      10.000067408269262       1                        0.11335732890529873      0.7365307197547204       0.40312620357892986
0.17101585894829244       0.6448636991649185       0.4037337995288335       10.000006898483          1                        0.17101585894829255      0.6448636991649187       0.4037337995288333
0.10782849451798007       0.7048106029652763       0.451988940074534        10.00005058733447        1                        0.10782849451798007      0.7048106029652762       0.4519889400745339
0                         0.49261568019095975      0.666784699599377        10.000054769367313       1                        0                        0.49261568019095964      0.6667846995993773
0.1936856456463042        0.7756989562575308       0.26708949420118516      9.999963851510007        1                        0.19368564564630417      0.7756989562575309       0.26708949420118516
0.20158924173375709       0.8535220390249473       0.2631576292138645       10.000020101965067       1                        0.20158924173375714      0.8535220390249474       0.2631576292138646
0.30414552145932144       0.7689719051818604       0.18495885576361762      9.999936491883501        1                        0.30414552145932133      0.7689719051818605       0.1849588557636176
0.3215110169348299        0.8206928739368675       0.1815960777944328       10.000013690923755       1                        0.32151101693482986      0.8206928739368673       0.18159607779443288
0.40658337251376064       0.8879953569186517       0.08278014369483701      10.000007969933007       1                        0.4065833725137609       0.8879953569186514       0.08278014369483701
0.49179013657628384       0.8914921539609839       0.09158079755050975      9.999990125662395        1                        0.49179013657628395      0.8914921539609835       0.09158079755050977
0.4835802731525677        0.8262855781111897       0.13986032491179748      10.000021581054668       1                        0.4835802731525677       0.8262855781111897       0.1398603249117975
0.3698915354691352        0.779654200330616        0.1870497380457324       9.999957773502846        1                        0.369891535469135        0.7796542003306162       0.1870497380457324
0.42337350909004445       0.8444394161634685       0.15271030615073575      10.000024986420666       1                        0.42337350909004445      0.8444394161634682       0.15271030615073575
0.23187314521537028       0.938217080931816        0.13668607163825056      9.999979557628318        1                        0.2318731452153703       0.9382170809318163       0.13668607163825056
0.30083615027255006       0.9338003910729752       0.11273570687671822      10.000034020916946       1                        0.30083615027255023      0.933800391072975        0.11273570687671826
0.24718788083240067       0.9504512155054463       0.086846875768493        9.999986917187378        1                        0.24718788083240067      0.9504512155054461       0.08684687576849302
0.25171302047065724       1                        0.08464764838566055      10.000002128076707       1                        0.25171302047065724      1                        0.08464764838566054
0.36316674502752117       0.8625932542157474       0.16556028738967402      9.999971057035424        1                        0.3631667450275212       0.862593254215747        0.16556028738967402
0.08668750638679341       1                        0.26449690432619205      10.000009664680666       1                        0.08668750638679344      1                        0.26449690432619205
0.2989005987521111        0.9048683211372908       0.18277826180702508      9.999974428607434        1                        0.29890059875211095      0.9048683211372908       0.18277826180702517
0.2535085899422128        0.9356333521660611       0.21480402660799186      9.999975751362198        1                        0.25350858994221276      0.935633352166061        0.2148040266079919
0.16220981364683298       1                        0.23494157188632797      10.000024679807211       1                        0.16220981364683298      1                        0.23494157188632803
0.2030119004080626        1                        0.1617127649764535       9.999964852966965        1                        0.20301190040806263      1                        0.16171276497645354
0.4282916862568803        0.9439976784593258       0.08469134203664049      9.999944361841493        1                        0.4282916862568803       0.9439976784593258       0.08469134203664047
0.5                       1                        0                        10.000025682956357       1                        0.5                      1                        0
0.37829168625688037       0.9439976784593258       0.08469134203664049      10.00000472124682        1                        0.3782916862568805       0.9439976784593258       0.08469134203664047
0.37654222307858853       0.9222197080817343       0.14113364444842633      9.999981265358908        1                        0.3765422230785884       0.922219708081734        0.1411336444484263
0.35000000000000003       1                        0.08660254037844396      10.0000254026334         1                        0.35                     1                        0.08660254037844398
0.38927120791459063       0.30639714507659305      0.5520767097443589       10.00000440218968        1                        0.38927120791459063      0.30639714507659305      0.5520767097443589
0.47770630767420674       0.26713248373569737      0.5295522539136442       10.000037832822661       1                        0.4777063076742069       0.2671324837356972       0.5295522539136445
0.3297687652737111        0.29285953052272373      0.5923599674927819       10.000028096041577       1                        0.3297687652737109       0.29285953052272357      0.5923599674927815
0.27527802092427667       0.30661152612348536      0.5579797095163975       9.999977625353166        1                        0.27527802092427667      0.30661152612348536      0.5579797095163973
0.2124080291252331        0.3194058355981206       0.6225520040298786       9.99998859068735         1                        0.21240802912523307      0.3194058355981204       0.6225520040298789
0.19090503389750507       0.2834166364946475       0.6762790015941698       9.999980256959443        1                        0.1909050338975051       0.2834166364946474       0.6762790015941694
0.3952754145327342        0.1818864098093201       0.6980075304805895       9.999981239631273        1                        0.3952754145327339       0.1818864098093202       0.6980075304805894
0.31190551288937224       0.2275709973187095       0.6468938170102653       10.000011095498273       1                        0.31190551288937224      0.22757099731870947      0.6468938170102656
0.28308341777961393       0.17343995472553056      0.7828920121105051       10.00001503266355        1                        0.28308341777961393      0.17343995472553064      0.7828920121105051
0.32084039631326433       0.18464631552286168      0.8347046720721469       9.999984421014684        1                        0.3208403963132644       0.1846463155228616       0.8347046720721473
0.30707614392318655       0.21217469759382218      0.7088941347363797       10.000042747433236       1                        0.30707614392318655      0.2121746975938221       0.7088941347363794
0.3742951071438098        0.19674266689958125      0.7818265725437354       9.999991256391436        1                        0.37429510714380965      0.19674266689958128      0.7818265725437356
0.44911702161567507       0.14658021935778268      0.7987665103010267       10.000003606266002       1                        0.44911702161567507      0.1465802193577827       0.7987665103010267
0.45                      0                        0.913397459621556        9.999868191773828        1                        0.4500000000000001       0                        0.9133974596215563
0.07099396640814849       0.29947742935003585      0.9200832958118597       9.999977189188444        1                        0.07099396640814849      0.2994774293500359       0.9200832958118601
0                         0.30000000000000004      0.9999999999999998       9.999963342268675        1                        0                        0.30000000000000004      0.9999999999999999
0.12521089100475122       0.2937936196958494       0.8535382640043268       10.00002982385301        1                        0.12521089100475125      0.29379361969584933      0.8535382640043268
0.14198793281629699       0.24895485870007145      0.9267691320021634       9.999957349605634        1                        0.14198793281629699      0.24895485870007142      0.9267691320021637
0.0835947758721096        0.2540156787217057       1                        9.999986126021454        1                        0.0835947758721096       0.2540156787217058       1
0.3743229301289508        0.12567271755812567      0.8750887135460816       10.000000873098534       1                        0.37432293012895096      0.12567271755812562      0.8750887135460811
0.39761744246503056       0.19517542026466683      0.8336246921404034       10.000065516398756       1                        0.3976174424650304       0.1951754202646668       0.8336246921404038
0.2463786381874165        0.15593168954343975      0.916307110034341        10.00000486111657        1                        0.24637863818741662      0.15593168954343986      0.9163071100343413
0.3263473678671653        0.10009278333423424      0.9380843467389126       9.999912806192812        1                        0.3263473678671653       0.10009278333423424      0.9380843467389127
0.2627170329944133        0.08781641679305238      1                        9.999924903417169        1                        0.2627170329944133       0.0878164167930524       1
0.4015880506448306        0.07171952047545234      0.9257409031802344       9.999983746042231        1                        0.4015880506448308       0.07171952047545237      0.925740903180234
0.39999999999999997       0                        1                        9.99992350655394         1                        0.39999999999999997      0                        1
0.35514885175714594       0.08504195385214786      1                        9.999929636921863        1                        0.355148851757146        0.08504195385214786      1
0.3531761012896611        0.14343904095090468      0.9380843467389126       9.99992386333335         1                        0.3531761012896612       0.1434390409509047       0.9380843467389129
0.30537682754166734       0.17331348947530564      0.9010808147369994       10.000010766808936       1                        0.30537682754166723      0.17331348947530556      0.9010808147369996
0.3643750168959181        0.19069528940717156      0.885854519439658        9.999988551489663        1                        0.3643750168959182       0.1906952894071715       0.8858545194396579
0.18358189128286803       0.21570689087882683      0.9382144150069149       9.999987377589106        1                        0.1835818912828681       0.21570689087882675      0.9382144150069146
0.15876497462784273       0.2041160977042935       1                        9.999964140818435        1                        0.15876497462784275      0.2041160977042935       1
0.23303415247337356       0.1618596651139039       1                        9.999965919521848        1                        0.23303415247337347      0.1618596651139039       1
0.060759237233364086      0.4920584961331134       0.7271702206737832       9.999988502637935        1                        0.06075923723336408      0.4920584961331134       0.7271702206737829
0                         0.5439737504110763       0.7441712505442978       9.999996762513975        1                        0                        0.5439737504110764       0.7441712505442978
0.12151847446672817       0.4401432418551506       0.7101691908032687       9.999927735252268        1                        0.12151847446672816      0.4401432418551506       0.7101691908032686
0.17180493165251012       0.3933076858296623       0.6718752008104759       10.000000156324603       1                        0.17180493165251018      0.3933076858296622       0.6718752008104759
0.18629998368870573       0.3204194146593555       0.7390107107451837       10.00002678281745        1                        0.18629998368870568      0.3204194146593553       0.7390107107451839
0.17157260836649682       0.27601295913605545      0.807707871567696        9.999996849613057        1                        0.1715726083664969       0.2760129591360555       0.8077078715676963
0.23752829481474386       0.31301658405165816      0.7023134803988762       10.00004042833225        1                        0.23752829481474386      0.3130165840516581       0.7023134803988763
0.17289046491543072       0.3906771588569441       0.7515745209874763       9.999998665097275        1                        0.17289046491543078      0.390677158856944        0.7515745209874765
0.12979510605801517       0.40637181250810217      0.7900785428466817       10.000026090337142       1                        0.12979510605801522      0.40637181250810195      0.7900785428466821
0.1489996908893176        0.5314488794731729       0.44860924384646605      9.999989657628022        1                        0.1489996908893176       0.5314488794731728       0.448609243846466
0.07925871765336236       0.5374207259281689       0.52405946029081         10.00000189738504        1                        0.07925871765336236      0.5374207259281687       0.5240594602908097
0.1823283399626389        0.5986160490030042       0.45208690243582234      9.999968498729665        1                        0.18232833996263886      0.5986160490030042       0.45208690243582217
0.13066707928185914       0.6020588364720759       0.4966579007355346       10.00000248866215        1                        0.13066707928185914      0.6020588364720757       0.4966579007355348
0.14123852639326448       0.5005564866611447       0.5469944471310448       9.99999354194331         1                        0.14123852639326448      0.5005564866611447       0.5469944471310448
0.2849145655531278        0.4578015371384778       0.4773153205798948       9.999985886820053        1                        0.28491456555312766      0.4578015371384777       0.47731532057989484
0.4527879148966599        0.36028902666657975      0.4503291339711088       9.999972541515287        1                        0.45278791489666         0.36028902666657986      0.4503291339711085
0.33880170533978166       0.44580646533579404      0.44551476662945133      9.999999539164156        1                        0.33880170533978154      0.44580646533579404      0.44551476662945116
0.3588528701828335        0.33755362156788915      0.4879210617068285       9.999973155265602        1                        0.3588528701828333       0.3375536215678893       0.4879210617068283
0.3879491352764628        0.3781680000210936       0.4499675620399901       9.999982154521604        1                        0.3879491352764628       0.37816800002109363      0.4499675620399904
0.3058416673288317        0.3772627220524497       0.48536588390553237      9.999994924986863        1                        0.30584166732883156      0.37726272205244976      0.4853658839055323
0.42036653506524513       0.34970689486687867      0.5068849098895221       9.999957867975217        1                        0.4203665350652451       0.34970689486687867      0.506884909889522
0.23301728075138356       0.5499894072079812       0.5047192461252403       9.999970604335894        1                        0.23301728075138353      0.5499894072079812       0.5047192461252407
0.26335641156249107       0.5503109039695184       0.45524066382104844      9.99998148982443         1                        0.26335641156249096      0.5503109039695182       0.45524066382104844
0.28324880220658694       0.38581534604571416      0.5469663541417668       10.000001386441706       1                        0.28324880220658694      0.385815346045714        0.5469663541417664
0.243381096378042         0.3730168074787705       0.5913883973206594       9.999973582689396        1                        0.24338109637804192      0.37301680747877053      0.5913883973206597
0.2834454522962048        0.4996631122415012       0.5195972430228802       9.999953177082757        1                        0.28344545229620477      0.4996631122415013       0.5195972430228804
0.2192896883562166        0.4519956765988772       0.5797909951635022       9.999987666788359        1                        0.21928968835621657      0.4519956765988771       0.5797909951635024
0.20735471593315102       0.4411474828242179       0.6527179235090955       9.999987581119399        1                        0.20735471593315105      0.44114748282421784      0.6527179235090957
0.14866391725152042       0.48734691955535137      0.6178734318400663       9.999987030868555        1                        0.14866391725152045      0.48734691955535137      0.6178734318400666
0.24243746597480548       0.5040636539672695       0.5615991599398994       9.9999794157017          1                        0.24243746597480545      0.5040636539672696       0.5615991599398993
0.0660702948250932        0.9038421178696122       0.4076243580795005       10.000021840855009       1                        0.06607029482509325      0.903842117869612        0.4076243580795005
0                         1                        0.39999999999999997      10.000018009901462       1                        0                        1                        0.39999999999999997
0.0821876196326528        1                        0.35644695095345114      10.00006416807012        1                        0.08218761963265278      1                        0.35644695095345114
0.08660254037844396       0.35000000000000003      1                        10.000032086427144       1                        0.08660254037844396      0.35000000000000003      1
0.06489755302900758       0.45157906302688555      0.8104699133001699       10.000021201149911       1                        0.06489755302900763      0.4515790630268856       0.8104699133001699
0.054099411609114814      0.3890929531270256       0.9475196357116704       10.000032014598041       1                        0.05409941160911482      0.38909295312702574      0.9475196357116705
0                         0.4                      1                        10.000005549864056       1                        0                        0.39999999999999997      1
0.054099411609114814      0.41409295312702554      0.9042183655224485       10.000060220109011       1                        0.05409941160911481      0.4140929531270255       0.9042183655224483
0                         0.45                     0.913397459621556        10.000080666877704       1                        0                        0.45000000000000007      0.9133974596215562
0                         0.496786313545669        0.8308612837536581       10.000029331525553       1                        0                        0.49678631354566893      0.830861283753658
0                         0.913397459621556        0.45                     9.999972452685956        1                        0                        0.9133974596215563       0.4500000000000001
0.09104677983386002       0.8081072080697016       0.3881998962212997       9.999999538074785        1                        0.09104677983386006      0.8081072080697012       0.3881998962212998
0.07248051354642505       0.7668025734932726       0.44327564745934         10.000007610871343       1                        0.07248051354642505      0.7668025734932726       0.44327564745934
0.07767627750021429       0.8499483279237641       0.4629976426167455       10.000020638709504       1                        0.07767627750021427      0.8499483279237641       0.46299764261674536
0                         0.8277192734173846       0.49961132594351726      9.999998264254522        1                        0                        0.8277192734173847       0.4996113259435172
0.08783166509829694       0.922469784252112        0.46470349508530817      10.000043194641526       1                        0.08783166509829694      0.9224697842521118       0.464703495085308
0.5437870372150909        0.808131740058911        0.12701034367285927      9.999956481692324        1                        0.543787037215091        0.8081317400589113       0.12701034367285932
0.26735447854422956       0.7572782899279717       0.27711604796146055      10.000030658204834       1                        0.2673544785442295       0.7572782899279713       0.27711604796146067
0.26766255013210966       0.8059319522513476       0.23422133160122233      9.999991926663073        1                        0.26766255013210954      0.8059319522513476       0.23422133160122238
0.3403967977644688        0.7412060606707348       0.27167975292321417      10.000051227366283       1                        0.3403967977644688       0.7412060606707346       0.27167975292321417
0.2670464069563495        0.7086246276045957       0.32001076432169884      10.000013812871861       1                        0.2670464069563494       0.7086246276045959       0.320010764321699
0.3025528051555653        0.6237219404217134       0.34544694317586044      10.000008391871997       1                        0.3025528051555655       0.6237219404217135       0.3454469431758602
0.5092879099741497        0.7619157680152941       0.18048658553273858      10.00003727063645        1                        0.5092879099741497       0.7619157680152938       0.18048658553273855
0.43563754947894906       0.7903364954793717       0.18914062032784723      10.000074280489633       1                        0.43563754947894917      0.7903364954793715       0.1891406203278473
0.38769482580533043       0.7543874128475535       0.23842091574389696      10.000036643151029       1                        0.3876948258053304       0.7543874128475533       0.238420915743897
0.38861450082444715       0.6796317935260633       0.26821553684454646      10.000023736101793       1                        0.3886145008244472       0.6796317935260633       0.2682155368445463
0.47448057179050734       0.7169811742011152       0.21736025799550018      9.999997873233454        1                        0.47448057179050745      0.716981174201115        0.21736025799550018
0.4252297474039154        0.7305878840782718       0.27046002641024575      10.000043155879478       1                        0.4252297474039154       0.7305878840782718       0.27046002641024575
0.10941404801848995       0.9471433880588341       0.31487281024259645      9.999997477340964        1                        0.10941404801848992      0.9471433880588339       0.3148728102425966
0.13214058965018646       0.8942867761176683       0.36524871615900084      10.000021837121059       1                        0.1321405896501865       0.8942867761176682       0.36524871615900095
0.20533630321905627       0.9521193943760694       0.25647377898271984      10.000015129416674       1                        0.20533630321905616      0.9521193943760694       0.25647377898271984
0.1634849662506173        0.9207150820882513       0.31510881715284406      9.999999766827408        1                        0.1634849662506173       0.9207150820882508       0.3151088171528441
0.29036131475513294       0.8784400151667079       0.24045255572638286      10.00001213994395        1                        0.29036131475513294      0.8784400151667076       0.24045255572638277
0.8894558291164364        0.4865234685651684       0.10655225166584917      10.000049445383672       1                        0.8894558291164362       0.4865234685651685       0.10655225166584921
0.8580136481794081        0.5424447848888844       0.055093615720463576     10.000045909040304       1                        0.8580136481794084       0.5424447848888844       0.05509361572046357
0.8264227041206925        0.5981325013971704       0                        10.000057465527693       1                        0.8264227041206927       0.5981325013971704       0
0.7156938632919786        0.5572794110814626       0.11868441491719375      9.999988653433734        1                        0.7156938632919784       0.557279411081463        0.11868441491719381
0.7538651286480071        0.4158438874673247       0.17321063949150964      10.00007832493567        1                        0.7538651286480073       0.4158438874673249       0.17321063949150964
0.80262983673726          0.5348895697777689       0.11018723144092715      10.000030603553137       1                        0.8026298367372603       0.534889569777769        0.11018723144092714
0.8232321120970066        0.4459877745828849       0.15494041376783943      10.000017285935794       1                        0.8232321120970064       0.4459877745828851       0.15494041376783943
0.7310283972226334        0.4813745755842472       0.16892230238036457      9.999997660081107        1                        0.7310283972226336       0.48137457558424745      0.16892230238036457
0.5495694822569521        0.4143631609250051       0.2803067047849784       9.99999161734985         1                        0.5495694822569525       0.41436316092500486      0.2803067047849784
0.648149247265685         0.2703914269485191       0.32763810737418037      10.000012787050936       1                        0.6481492472656852       0.2703914269485192       0.3276381073741803
0.683370851738638         0.23202356798413526      0.3729517178502903       10.000055824522617       1                        0.6833708517386382       0.23202356798413518      0.37295171785029013
0.5470699553576289        0.6132151459955634       0.19748346719828574      10.00006950599989        1                        0.5470699553576286       0.6132151459955631       0.19748346719828572
0.5689285473602645        0.4641696160219287       0.22935331151150773      10.000007580262226       1                        0.5689285473602648       0.4641696160219287       0.2293533115115078
0.6271171950344727        0.43170147536291775      0.21349588161679334      10.000019219434206       1                        0.6271171950344724       0.43170147536291753      0.21349588161679336
0.6056331940456915        0.5253385520765465       0.18060169901422754      9.999986004295774        1                        0.6056331940456913       0.5253385520765465       0.1806016990142276
0.6190825911075288        0.4307036794161395       0.27608719972849116      9.999976077901295        1                        0.6190825911075285       0.4307036794161395       0.2760871997284911
0.6590139034394321        0.5018977794171153       0.18969371972509458      9.999999208815622        1                        0.6590139034394321       0.5018977794171153       0.18969371972509466
0.3491688782284868        0.5229028326124028       0.4672641195896047       9.999995534816035        1                        0.34916887822848686      0.5229028326124024       0.4672641195896046
0.3858398566710803        0.6149176268347575       0.36838390991452125      9.999927509546641        1                        0.3858398566710804       0.6149176268347573       0.36838390991452125
0.41275654513897264       0.6434821036108469       0.3113089201863915       10.000019839796485       1                        0.4127565451389726       0.6434821036108468       0.3113089201863915
0.5058927137162678        0.6604742012507437       0.267105484787223        9.999981728761261        1                        0.5058927137162678       0.6604742012507434       0.26710548478722296
0.4382374539019535        0.6129113539766252       0.27581992446134945      9.999968616839089        1                        0.4382374539019534       0.6129113539766249       0.27581992446134945
0.43967323360686494       0.6720465803869363       0.25423393045826176      10.000009988906998       1                        0.4396732336068648       0.6720465803869365       0.25423393045826176
0.5064474619639058        0.44820587010013013      0.32053590398292175      9.999976533108416        1                        0.5064474619639054       0.4482058701001303       0.3205359039829218
0.5001735922091152        0.49687944553470903      0.24765990312213582      10.000108442456513       1                        0.5001735922091153       0.49687944553470925      0.24765990312213582
0.5598516357293865        0.535203474694087        0.23124358708993736      10.000049721215138       1                        0.5598516357293862       0.5352034746940871       0.2312435870899374
0.5092918146169848        0.5943009513916452       0.2533277268241908       10.000035194475233       1                        0.5092918146169848       0.5943009513916452       0.25332772682419075
0.4368016741970421        0.5537761275663141       0.2974059184644372       9.999977716770479        1                        0.43680167419704213      0.5537761275663143       0.2974059184644371
0.4716245680804739        0.5009909988332221       0.3089709112236795       9.999990586610217        1                        0.47162456808047376      0.5009909988332221       0.30897091122367937
0.6498803613621676        0.3550770260620717       0.33746586646534715      9.999997179109231        1                        0.6498803613621679       0.3550770260620714       0.3374658664653473
0.6896182616473004        0.3833700775944473       0.29362577005200535      10.000005577685275       1                        0.6896182616473004       0.38337007759444747      0.2936257700520055
0.7291420538349589        0.33009688451404057      0.29331681607695387      10.000009448315181       1                        0.729142053834959        0.3300968845140406       0.2933168160769537
0.7118512208914639        0.30986399469003817      0.34248118201777694      10.00004669145587        1                        0.711851220891464        0.3098639946900381       0.34248118201777705
0.7756501652746005        0.5874619236838377       0.055093615720463576     9.99997620642616         1                        0.7756501652746007       0.5874619236838379       0.05509361572046357
0.8419693455452889        0.5851809905566372       0.0955034637060678       10.000023600425912       1                        0.8419693455452888       0.5851809905566371       0.09550346370606783
0.702242520512785         0.619361058315225        0.10479793170910837      9.999994761797891        1                        0.7022425205127851       0.6193610583152247       0.10479793170910841
0.6852387986342422        0.6890085046919737       0.07081960378619036      10.000034081840635       1                        0.6852387986342419       0.6890085046919734       0.07081960378619036
0.7449220920712537        0.7465981224479391       0                        10.00007945456347        1                        0.7449220920712539       0.746598122447939        0
0.688632151304838         0.8319310744914549       0                        10.000060019591206       1                        0.688632151304838        0.8319310744914551       0
0.646312976291226         0.8109544882490436       0.05708018121696047      10.000037190514055       1                        0.6463129762912257       0.8109544882490439       0.05708018121696049
0.6446579322948084        0.9155785473574275       0                        10.000078298213849       1                        0.6446579322948083       0.9155785473574273       0
0.6923772610846299        0.7700914197095378       0.07081960378619036      10.000086575110148       1                        0.6923772610846299       0.7700914197095374       0.07081960378619036
0.7708094531015742        0.5925983036529262       0.12729886330443288      10.000026404584496       1                        0.770809453101574        0.5925983036529261       0.12729886330443294
0.6195296792496576        0.573527503853465        0.21482727105773886      9.999957590684435        1                        0.6195296792496577       0.5735275038534646       0.21482727105773877
0.6083173227134163        0.6237297537400163       0.2114591989800994       10.00000018302537        1                        0.6083173227134163       0.6237297537400166       0.2114591989800995
0.6222395173794808        0.7300842273850915       0.12789978500315083      10.000036877583495       1                        0.6222395173794806       0.7300842273850917       0.1278997850031508
0.6039938012776142        0.7899779020066322       0.114160362433921        10.000138641666625       1                        0.6039938012776142       0.789977902006632        0.114160362433921
0.6404852334813474        0.6701905527635511       0.14163920757238072      10.000028871691477       1                        0.6404852334813476       0.6701905527635508       0.14163920757238072
0.6710381922016092        0.4555402295268042       0.2538004101102768       9.999961112086469        1                        0.6710381922016091       0.455540229526804        0.2538004101102767
0.7288806176489292        0.43340175657277447      0.23941778042708456      10.000012141929012       1                        0.7288806176489294       0.4334017565727743       0.23941778042708453
0.6918067304808175        0.5985833155616362       0.16759144637906456      9.999991419803365        1                        0.6918067304808172       0.5985833155616366       0.1675914463790645
0.7292248619442993        0.5314990712572363       0.22132126823491877      10.000002479212306       1                        0.7292248619442993       0.5314990712572366       0.22132126823491874
0.7621555659289834        0.7017500403106585       0.07081960378619036      10.00003035528601        1                        0.7621555659289833       0.7017500403106585       0.07081960378619036
0.8281887609935447        0.6952483156936965       0                        10.000067145833723       1                        0.8281887609935447       0.6952483156936965       0
0.8159084085976731        0.6703543192114266       0.06938812981601318      10.000005772495122       1                        0.8159084085976731       0.6703543192114266       0.0693881298160132
0.8215631604794472        0.7223599451958592       0.06638780798977341      10.000043191480607       1                        0.8215631604794473       0.722359945195859        0.06638780798977341
0.8421013654935399        0.796093830373879        0                        10.000057482404959       1                        0.84210136549354         0.796093830373879        0
0.869661251266363         0.6389585981121949       0.067956655845836        10.00005306643824        1                        0.8696612512663624       0.6389585981121948       0.067956655845836
0.913397459621556         0.6499999999999999       0                        10.000054925660848       1                        0.9133974596215563       0.6500000000000001       0
0.8809707550299111        0.74296985008106         0.061956012193356516     10.000020357863658       1                        0.8809707550299107       0.7429698500810601       0.061956012193356516
0.9156538090433078        0.7461533108472876       0                        10.00004731965279        1                        0.915653809043308        0.7461533108472878       0
1                         0.45                     0.08660254037844396      10.000082474425835       1                        1                        0.45000000000000007      0.08660254037844396
0.912962521455585         0.5889585981121949       0.11125792603505805      10.000019522536425       1                        0.9129625214555854       0.5889585981121946       0.1112579260350581
1                         0.5999999999999998       0                        10.000043153612948       1                        1                        0.5999999999999998       0
1                         0.5499999999999998       0.08660254037844396      10.000054283128199       1                        1                        0.5499999999999998       0.08660254037844399
0.9348306256331815        0.6444792990560974       0.07727959811213998      10.000088313648543       1                        0.9348306256331821       0.6444792990560975       0.07727959811213997
1                         0.7                      0                        10.000081951290369       1                        1                        0.7000000000000001       0
0.8960108515855205        0.643249155979191        0.1314106145844308       10.000064956156612       1                        0.8960108515855205       0.6432491559791911       0.13141061458443076
0.794665380965495         0.3149588040016793       0.25441561335630697      10.000011969441722       1                        0.7946653809654951       0.3149588040016793       0.25441561335630697
0.7866215638179015        0.41193233320595857      0.22443299084165252      10.000053198338948       1                        0.7866215638179015       0.4119323332059588       0.2244329908416525
0.7582375704594293        0.3759243694284769       0.2480287449997302       9.99999299650009         1                        0.758237570459429        0.37592436942847685      0.24802874499973016
0.8851840657948848        0.33014204093380806      0.18040070625385937      9.999943309486206        1                        0.8851840657948848       0.33014204093380795      0.1804007062538594
0.8206649159083725        0.3530939165697247       0.2158233646107116       10.000034074931685       1                        0.8206649159083728       0.3530939165697246       0.2158233646107117
0.8846006467778872        0.45237086125554893      0.1581168781651364       9.99999666639461         1                        0.8846006467778872       0.4523708612555489       0.15811687816513634
0.9447279145582181        0.4937202502177115       0.13940838992843366      10.000067199614163       1                        0.944727914558218        0.4937202502177113       0.13940838992843363
0.9123965919349912        0.5598550762124319       0.16665175091111953      10.000056339473915       1                        0.9123965919349911       0.5598550762124318       0.16665175091111953
0.8688778526627837        0.5916051173009658       0.15756394678628308      10.000007980455441       1                        0.8688778526627838       0.5916051173009658       0.1575639467862831
0.8742024384851295        0.42025038055628         0.21606883426693319      10.00001439935238        1                        0.874202438485129        0.4202503805562798       0.2160688342669331
0.8837068960617742        0.281055128366825        0.22656772700077937      10.00005469627756        1                        0.8837068960617742       0.281055128366825        0.2265677270007795
1                         0.17275912780753458      0.3072080043734928       10.000004135484339       1                        1                        0.17275912780753455      0.3072080043734928
0.9373452101377179        0.39015442652835813      0.20114271378844456      9.999998811671095        1                        0.9373452101377177       0.39015442652835824      0.20114271378844462
0.9419333209697774        0.3183268685564204       0.20960091181553087      9.999990656405727        1                        0.9419333209697774       0.3183268685564204       0.20960091181553075
0.9418534480308871        0.26792934386855766      0.24033719471651732      9.999976719780761        1                        0.9418534480308871       0.2679293438685576       0.2403371947165173
1                         0.3114598098880154       0.1691313900670386       9.999964589405572        1                        1                        0.3114598098880154       0.1691313900670386
1                         0.2548035593702903       0.2541066624322553       10.000056415016108       1                        1                        0.25480355937029037      0.2541066624322554
1                         0.4088063186021377       0.17173446908548884      10.000029121424967       1                        1                        0.40880631860213773      0.1717344690854889
0.9327570993056584        0.4619819845002958       0.1926845157613582       10.00000843066461        1                        0.9327570993056579       0.461981984500296        0.19268451576135825
0.8631803868043679        0.10505590374961662      0.5173542739479111       10.000025771055027       1                        0.8631803868043678       0.10505590374961661      0.5173542739479108
0.6539509725171397        0.1661002252158271       0.4982499652746724       10.00000968498502        1                        0.6539509725171402       0.16610022521582707      0.49824996527467225
0.7736762674484698        0.3673453130551923       0.3202197696882135       10.000009796236352       1                        0.77367626744847         0.36734531305519247      0.3202197696882135
0.8223498657942648        0.2813225534160539       0.30015893056270326      9.999991585864688        1                        0.8223498657942654       0.2813225534160538       0.3001589305627031
0.9127402355768854        0.2464981922627128       0.3018514260173291       10.000067232359198       1                        0.9127402355768851       0.24649819226271288      0.3018514260173291
0.8482124674448709        0.34511013644854915      0.2937916398010129       9.999982047388231        1                        0.8482124674448707       0.3451101364485493       0.2937916398010128
0.8348878532928365        0.12621210939470642      0.46305018466100456      9.999977851767243        1                        0.8348878532928371       0.12621210939470642      0.4630501846610043
0.8192218925704754        0.22694759783823143      0.36412154504092514      10.000029307427384       1                        0.8192218925704752       0.2269475978382314       0.36412154504092514
0.7890357284323863        0.19827096233567615      0.4243952247732135       10.000030362713572       1                        0.7890357284323865       0.1982709623356761       0.42439522477321373
0.8599109866272044        0.16137048489395858      0.3762405113157111       9.999980125913856        1                        0.8599109866272043       0.16137048489395858      0.376240511315711
0.8065953197813053        0.14736831503979617      0.4087460953740979       10.000026858181407       1                        0.8065953197813054       0.14736831503979617      0.4087460953740979
0.9563701177884427        0.28522246649543015      0.31679213318915717      10.000006654848926       1                        0.9563701177884423       0.28522246649543004      0.3167921331891571
0.8850581704338594        0.23033404422876141      0.36324546896512794      10.000004044916535       1                        0.8850581704338594       0.2303340442287614       0.36324546896512805
0.931590193402184         0.0958292220640303       0.4836771369739556       9.999968979353694        1                        0.9315901934021833       0.09582922206403031      0.48367713697395576
1.0000000000000002        0                        0.49999999999999994      10.00001033970247        1                        1.0000000000000002       0                        0.49999999999999994
0.9334769499330584        0.1619687355160261       0.3938787505048102       10.000001138508896       1                        0.9334769499330587       0.16196873551602614      0.3938787505048102
1                         0.08660254037844396      0.45                     9.99997115345792         1                        1                        0.08660254037844398      0.4500000000000001
0.953240828496795         0.21969035379852292      0.4021390725123011       9.99999041993537         1                        0.9532408284967954       0.2196903537985229       0.40213907251230124
1                         0.17022361499846653      0.4035111224561208       9.999892999736712        1                        1                        0.17022361499846655      0.4035111224561208
0.7585656796607538        0.13557806448272183      0.5078021196112917       9.999981893806485        1                        0.7585656796607538       0.13557806448272192      0.5078021196112915
0.8129633139871799        0.21011180749923325      0.4847085478958225       9.999973308409901        1                        0.8129633139871796       0.21011180749923322      0.48470854789582246
0.90648165699359          0.19016771124884985      0.4441098351759717       9.999958203037629        1                        0.9064816569935905       0.19016771124884982      0.4441098351759719
0.8397771947902976        0.09455353251206075      0.5767127756749709       9.999967481910895        1                        0.8397771947902976       0.09455353251206076      0.5767127756749707
0.8998955623338952        0.08405116127450486      0.5928252071886423       10.000046450829682       1                        0.8998955623338953       0.0840511612745049       0.5928252071886424
0.9161449756691096        0                        0.6445043244129832       9.999984221040505        1                        0.9161449756691094       0                        0.6445043244129832
0.9243426989557234        0.0585401536343947       0.632623842034456        9.999964456772448        1                        0.9243426989557232       0.05854015363439472      0.6326238420344557
0.9382936636029634        0.06693965331723718      0.5566781939187426       10.00003806704566        1                        0.938293663602963        0.0669396533172372       0.5566781939187424
1                         0                        0.5999999999999998       9.999963442427163        1                        1                        0                        0.5999999999999998
0.919035925197887         0.1644975661958498       0.5008166740643761       9.999958392801688        1                        0.919035925197887        0.16449756619584976      0.5008166740643761
0.931590193402184         0.13882742114284982      0.5575235129527806       10.000010411177648       1                        0.9315901934021834       0.13882742114284982      0.5575235129527806
1                         0.08660254037844396      0.5499999999999998       9.999965536724625        1                        1                        0.08660254037844396      0.5499999999999998
1                         0                        0.7                      9.99992570665607         1                        1                        0                        0.7000000000000001
0.27750563994340144       0.3436293623461068       0.650559206001386        9.999952394134207        1                        0.2775056399434013       0.3436293623461068       0.650559206001386
0.30638273737367133       0.279227216894624        0.7200686567243553       9.999973672813352        1                        0.30638273737367144      0.27922721689462393      0.7200686567243548
0.2337921005992719        0.2044091006114725       0.8134466372653595       10.00002157833348        1                        0.23379210059927205      0.20440910061147233      0.8134466372653587
0.25897182816562725       0.27351281611007067      0.7708972982344711       10.000014599333506       1                        0.2589718281656274       0.27351281611007056      0.7708972982344707
0.2083988079378934        0.2272976840533602       0.8764288300138299       10.000009206377573       1                        0.2083988079378934       0.22729768405336018      0.8764288300138295
0.2856310891613834        0.2359943131122902       0.8555667510429884       9.99998355240167         1                        0.2856310891613835       0.23599431311229024      0.8555667510429888
0.09645680823113581       0.459187083038467        0.871492682351832        9.999980309764034        1                        0.09645680823113582      0.45918708303846684      0.871492682351832
0.16615384050100032       0.3569454075107809       0.8473273043926072       9.999996292448786        1                        0.16615384050100032      0.35694540751078097      0.8473273043926072
0.18781633650712687       0.29056796519878403      0.8649835470090783       10.000044066544913       1                        0.18781633650712684      0.2905679651987842       0.8649835470090784
0.10819882321822957       0.37818590625405113      0.8950392714233408       10.00003660768051        1                        0.10819882321822957      0.3781859062540513       0.8950392714233409
0.13130532436606804       0.408066245274624        0.8594099933722196       10.000028189197149       1                        0.13130532436606804      0.4080662452746237       0.8594099933722201
0.4643060723339878        0.2129499987214431       0.663077657652555        10.000007615001511       1                        0.4643060723339881       0.21294999872144313      0.6630776576525546
0.44082105787383546       0.20743722671972514      0.7505256276807968       10.000046521604801       1                        0.44082105787383535      0.20743722671972523      0.7505256276807972
0.3537936465817154        0.28494161767917736      0.6692400152142396       10.000084550898801       1                        0.3537936465817155       0.28494161767917736      0.6692400152142395
0.3387156198181994        0.3566622117527643       0.544803710979132        9.99998587748782         1                        0.3387156198181993       0.35666221175276447      0.5448037109791319
0.4118599295828653        0.25239561098409913      0.6270802900995529       10.00004193813693        1                        0.4118599295828655       0.252395610984099        0.6270802900995528
0.38024357664800906       0.3213782660240231       0.6113116509745276       9.999982862049317        1                        0.38024357664800923      0.3213782660240232       0.6113116509745278
0.43956567259631407       0.28693397695809086      0.5848248520096203       10.000025248128601       1                        0.439565672596314        0.2869339769580908       0.5848248520096201
0.5602398303388417        0.4822549357124339       0.32049496215706824      10.000005729146121       1                        0.560239830338842        0.48225493571243355      0.3204949621570682
0.5654958675877394        0.36438523640023185      0.31509126064166637      9.999989785790333        1                        0.5654958675877392       0.36438523640023185      0.31509126064166637
0.5031750664440067        0.3359745658389441       0.3562552317057261       9.99999250449481         1                        0.5031750664440066       0.335974565838944        0.3562552317057259
0.5378474695737054        0.2967890665807511       0.41141873821554775      10.00001742505409        1                        0.5378474695737054       0.2967890665807511       0.4114187382155478
0.6101424610770348        0.32678397452969615      0.381305962878689        9.999978452259548        1                        0.6101424610770345       0.3267839745296961       0.38130596287868895
0.5031146527398536        0.31027749770544355      0.4796133849914716       9.999976180236818        1                        0.5031146527398535       0.31027749770544344      0.4796133849914717
0.507917992229275         0.35490489618549736      0.4365126449175897       10.000053707971103       1                        0.5079179922292751       0.3549048961854975       0.43651264491758984
0.5194562749587979        0.40555253561145976      0.3910359446076617       9.999993354669142        1                        0.5194562749587982       0.40555253561145954      0.39103594460766183
0.47621895894857624       0.5039428477470609       0.3840515198939053       10.000001063202008       1                        0.4762189589485764       0.5039428477470606       0.38405151989390524
0.42109628381484165       0.5739542327253805       0.3748221345008576       9.999998205191556        1                        0.4210962838148417       0.5739542327253807       0.3748221345008578
0.41269391858853155       0.5134228401797318       0.425657819741755        10.000022109988262       1                        0.41269391858853177      0.5134228401797322       0.42565781974175476
0.44813969726696296       0.4607876162271176       0.4506512280538484       10.00004308297718        1                        0.4481396972669631       0.4607876162271173       0.4506512280538484
0.5161267796697758        0.47255360329188373      0.40562131276505364      10.000023158916099       1                        0.5161267796697758       0.4725536032918837       0.40562131276505375
0.5017557573722287        0.4249989727595247       0.4488820495612684       9.999999860833567        1                        0.5017557573722284       0.4249989727595248       0.4488820495612683
0.6445016510337377        0                        0.752058192447227        9.999990240444737        1                        0.6445016510337377       0                        0.7520581924472273
0.7463543405062201        0                        0.6364921404267767       9.999998677275572        1                        0.74635434050622         0                        0.6364921404267766
0.7162474123732548        0.06250000000000001      0.6188455986539635       9.999965846821201        1                        0.7162474123732548       0.06250000000000001      0.6188455986539637
0.6733450384460504        0                        0.6764578491864636       9.999964003178995        1                        0.6733450384460503       0                        0.6764578491864636
0.5465163795622826        0.05331834212444493      0.8013905714073626       10.000004991179427       1                        0.5465163795622826       0.05331834212444496      0.8013905714073627
0.5984940437341644        0                        0.8314727052794839       10.000042595206668       1                        0.5984940437341644       0                        0.8314727052794841
0.5499999999999998        0                        0.913397459621556        10.000021414704927       1                        0.5499999999999998       0                        0.9133974596215563
0.6209798929821441        0.051751095489530455     0.8851977927715727       10.000016637245656       1                        0.620979892982144        0.05175109548953047      0.8851977927715727
0.8915631389170452        0.05124926053037106      0.6826228407365791       10.000016941331104       1                        0.8915631389170454       0.05124926053037107      0.6826228407365792
0.8328333324634906        0                        0.6875145112554141       10.000010456039705       1                        0.8328333324634906       0                        0.6875145112554141
0.6394476619109373        0.07837328195478833      0.6705574988082671       10.000036265244551       1                        0.6394476619109373       0.07837328195478838      0.6705574988082668
0.6929127343946527        0.055201846370847754     0.8018925365996118       10.000027512155052       1                        0.6929127343946527       0.05520184637084777      0.8018925365996116
0.6955480942868042        0                        0.8305249034329119       9.999948450990193        1                        0.6955480942868044       0                        0.8305249034329117
0.7486017771748218        0                        0.7402170501528715       9.999954702720004        1                        0.7486017771748217       0                        0.7402170501528715
0.6443857091183328        0.055201846370847754     0.8023664375228978       9.999987101934916        1                        0.6443857091183329       0.05520184637084774      0.8023664375228979
0.607636997012489         0.07707154619784891      0.7175525024617316       10.000004062998606       1                        0.6076369970124893       0.07707154619784888      0.7175525024617317
0.8163740027762272        0.08405116127450486      0.6360712774020307       9.999978497273197        1                        0.8163740027762277       0.08405116127450492      0.6360712774020311
0.7572416374105088        0.0982850349604106       0.5826035062391517       9.999954146036973        1                        0.7572416374105088       0.0982850349604106       0.582603506239152
0.5799531677960992        0.18222730993211836      0.576277384220874        9.999962183274922        1                        0.579953167796099        0.18222730993211836      0.5762773842208744
0.7209987857088495        0.1632629542150648       0.5512053615163724       10.000008130650578       1                        0.7209987857088493       0.1632629542150648       0.5512053615163723
0.6257789217335269        0.18750000000000006      0.5658031889713611       10.00001178372512        1                        0.6257789217335271       0.18750000000000003      0.5658031889713614
0.6781825183438417        0.13539011553914418      0.6060882258831138       10.000014350334316       1                        0.678182518343842        0.13539011553914418      0.6060882258831141
0.592868382772605         0.1416510692791956       0.6485973092855902       9.999970448240889        1                        0.5928683827726052       0.14165106927919566      0.6485973092855902
0.6385218533230038        0.14562956691858517      0.7012129983698877       9.999981465437832        1                        0.6385218533230039       0.14562956691858506      0.7012129983698877
0.7623300525931127        0.2549654756975062       0.37898868953168535      9.999999309219584        1                        0.762330052593113        0.2549654756975064       0.3789886895316853
0.7680031600207913        0.31115539437634926      0.34960422960994936      10.000029820635302       1                        0.7680031600207914       0.3111553943763494       0.3496042296099493
0.7159808037581975        0.20036210565615842      0.489724098756016        10.000024164043234       1                        0.7159808037581975       0.20036210565615856      0.48972409875601575
0.7585099714852713        0.24240056887336442      0.46414188494613784      10.000067242201247       1                        0.7585099714852711       0.24240056887336442      0.4641418849461376
0.5955427203202589        0.2659832988822149       0.43747990637890516      9.999995832492191        1                        0.5955427203202587       0.265983298882215        0.43747990637890516
0.6620351920590458        0.240882954409468        0.4247251045590443       10.000024006741945       1                        0.6620351920590456       0.24088295440946797      0.4247251045590444
0.652159126160173         0.23354368594894304      0.5028533054412645       10.000025214100727       1                        0.652159126160173        0.23354368594894304      0.5028533054412646
0.6562256922005685        0.300674716458489        0.4177276491642916       10.000050061075482       1                        0.6562256922005681       0.3006747164584889       0.41772764916429145
0.7023089233241021        0.27456545838728186      0.4541493354498942       9.999994018789325        1                        0.7023089233241022       0.27456545838728186      0.45414933544989455
0.5672229632958132        0.22488307366638782      0.5049303457114307       10.000004004163381       1                        0.5672229632958135       0.22488307366638782      0.5049303457114308
0.569323979846528         0.3247661473327756       0.47965893908961593      10.000051795457066       1                        0.569323979846528        0.3247661473327756       0.47965893908961565
0.5327512080784403        0.29706883667961503      0.5446524880907818       9.999968633398915        1                        0.5327512080784403       0.2970688366796149       0.5446524880907818
0.4898601372780375        0.2674708088395887       0.6175729942748819       10.000019528621232       1                        0.4898601372780376       0.26747080883958857      0.6175729942748818
0.5950283735333559        0.21859671288529992      0.6429188919678908       9.99999563351186         1                        0.5950283735333562       0.21859671288529992      0.642918891967891
0.5578933826261986        0.2587354044197943       0.591739483805203        9.999990984555236        1                        0.5578933826261986       0.2587354044197943       0.5917394838052028
0.5296672229336719        0.21577335580337148      0.6529982748102229       10.000017454997248       1                        0.5296672229336715       0.21577335580337145      0.6529982748102229
0.6499999999999999        0                        0.913397459621556        10.000031280395813       1                        0.65                     0                        0.9133974596215562
0.5999999999999998        0                        1                        9.999973025335198        1                        0.5999999999999998       0                        1
0.672812098898471         0.060131208771070324     0.8871990790024763       10.000023026962337       1                        0.6728120988984707       0.060131208771070345     0.887199079002476
0.5005499881403584        0.06810091114996543      0.893703096617947        9.999980834258704        1                        0.5005499881403584       0.06810091114996547      0.8937030966179476
0.49999999999999994       0                        1.0000000000000002       9.999952092164397        1                        0.49999999999999994      0                        1.0000000000000002
0.5607649405612513        0.08157663841435893      0.9111010797893708       9.999996734566603        1                        0.5607649405612511       0.08157663841435894      0.9111010797893706
0.5527977386612263        0.13117727670917315      0.7308618628044047       10.00001040783238        1                        0.5527977386612263       0.13117727670917312      0.7308618628044043
0.5167522150851103        0.173504386458787        0.6990750252055571       10.000018654965151       1                        0.5167522150851104       0.17350438645878705      0.6990750252055572
0.5323895658999236        0.11246072212673566      0.8398283557481895       10.0000319109409         1                        0.5323895658999233       0.1124607221267357       0.8398283557481893
0.4749489114348815        0.16956758392633456      0.7450129922806559       10.000021086635927       1                        0.47494891143488144      0.16956758392633461      0.7450129922806563
0.5737016046730703        0.11674952465021324      0.7922341216434947       9.99999823841734         1                        0.5737016046730704       0.11674952465021321      0.7922341216434945
0.4998096818237943        0.1616561078346215       0.795528088915358        10.000020175660662       1                        0.49980968182379454      0.1616561078346215       0.7955280889153579
0.45269113587533444       0.13700546797440374      0.8714081939155384       9.999989095216472        1                        0.45269113587533427      0.13700546797440383      0.8714081939155384
0.6108274164668077        0.9052837491803718       0.05019072570309126      10.000043972074325       1                        0.6108274164668079       0.9052837491803718       0.05019072570309126
0.576996900638807         0.8949889510033161       0.10038145140618251      10.000054026894098       1                        0.5769969006388073       0.8949889510033164       0.10038145140618256
0.5423805046517917        0.946620276241075        0.09133132088690367      10.000058717915207       1                        0.5423805046517919       0.9466202762410749       0.09133132088690371
0.5884984503194035        0.9474944755016581       0.05019072570309126      10.000013162940283       1                        0.5884984503194033       0.947494475501658        0.05019072570309126
0.6                       1                        0                        10.000006206950113       1                        0.6                      1                        0
0.6129735039597948        0.9474944755016581       0.09432940322479968      10.000067392983347       1                        0.6129735039597949       0.9474944755016581       0.09432940322479967
0.7                       1                        0                        10.000065792643738       1                        0.7000000000000001       1                        0
0.6324604711579908        0.8455710926939272       0.12495146419305272      10.000087164859545       1                        0.6324604711579908       0.8455710926939269       0.12495146419305271
0.4962625589841797        0.945746076980492        0.1324719160707161       10.000042456072915       1                        0.4962625589841797       0.9457460769804914       0.1324719160707161
0.45                      1                        0.08660254037844396      9.99999447891339         1                        0.4500000000000001       1                        0.08660254037844396
0.57551285808182          0.8649708273534836       0.16435108813701224      10.000046296923026       1                        0.5755128580818202       0.8649708273534839       0.16435108813701224
0.5499999999999999        1                        0.08660254037844396      10.000058559522554       1                        0.5499999999999999       1                        0.08660254037844398
0.5349955467957318        0.6975459579193983       0.2211128461536797       9.999983758803713        1                        0.5349955467957321       0.6975459579193987       0.2211128461536796
0.6155589588300768        0.7028988614235094       0.1813760268630302       10.000035150658459       1                        0.6155589588300768       0.7028988614235095       0.1813760268630302
0.5719498864156629        0.7678174226344571       0.18298191789614407      10.000021062038378       1                        0.5719498864156628       0.7678174226344567       0.18298191789614415
0.5938355763278736        0.6759003417690302       0.23067653298960722      10.000051617680493       1                        0.5938355763278734       0.6759003417690299       0.2306765329896071
0.34544428643918457       0.7081685936390153       0.3257147201708353       9.999983571062257        1                        0.3454442864391846       0.7081685936390154       0.32571472017083536
0.2972738147673192        0.7639590648642681       0.33531364137905645      9.999953736679238        1                        0.2972738147673191       0.7639590648642683       0.3353136413790565
0.15430133215830236       0.8314716848393716       0.3154511851896033       10.000025768841484       1                        0.1543013321583023       0.8314716848393716       0.3154511851896034
0.2175558844827447        0.8942867761176683       0.3153448240630917       10.000015570138006       1                        0.21755588448274474      0.8942867761176682       0.31534482406309183
0.16969515083373035       0.8543060839910717       0.4130775302883184       9.999955891482408        1                        0.16969515083373035      0.8543060839910719       0.4130775302883182
0.1820935596677201        0.7885735522353367       0.3740504813645505       9.999989221704553        1                        0.18209355966772017      0.7885735522353369       0.3740504813645505
0.1988752743518401        0.7271783853840862       0.4148075211948646       10.000043678529932       1                        0.19887527435184008      0.727178385384086        0.4148075211948647
0.24182642185785097       0.7443298124649239       0.352732728432917        9.999986413608692        1                        0.24182642185785105      0.7443298124649241       0.3527327284329171
0.2413516979961548        0.6872039230687157       0.3877876626734388       9.999976676507599        1                        0.24135169799615488      0.6872039230687155       0.3877876626734389
0.3348937583096656        0.6139709467451743       0.42021224182972206      10.000002142552159       1                        0.3348937583096657       0.6139709467451745       0.4202122418297219
0.283947659948251         0.6130242666555911       0.4720405737449228       9.999997790299583        1                        0.28394765994825105      0.6130242666555911       0.4720405737449229
0.3737938384490986        0.563696893462453        0.4229350307857385       9.999984234602483        1                        0.3737938384490986       0.5636968934624529       0.4229350307857385
0                         0.7461852748684108       0.5447138573202268       10.00004066173244        1                        0                        0.7461852748684108       0.5447138573202269
0.053914247258990036      0.7254979389168436       0.4983513986973804       10.000055515884092       1                        0.05391424725899003      0.7254979389168434       0.4983513986973804
0.12439627651604154       0.6630598918050902       0.50438518242837         10.000025337848918       1                        0.12439627651604154      0.6630598918050903       0.5043851824283702
0.07925871765336236       0.6243048003300888       0.5260085058852462       10.000011115461747       1                        0.07925871765336236      0.6243048003300887       0.5260085058852458
0.07742788357547982       0.5871396102902685       0.5736250648659534       9.999986054515372        1                        0.07742788357547982      0.5871396102902685       0.5736250648659537
0                         0.6678611947411901       0.5898108148146036       9.99996172866264         1                        0                        0.6678611947411903       0.5898108148146035
0.055046517596979         0.7626552370780666       0.5691810161112892       10.000007910972972       1                        0.055046517596979        0.7626552370780664       0.5691810161112892
0                         0.5890344992161991       0.6496264051971408       9.999990138574832        1                        0                        0.589034499216199        0.649626405197141
0.09533007087641235       0.5152525027914606       0.630844458043284        9.999981216396924        1                        0.09533007087641239      0.5152525027914604       0.6308444580432845
0.12570968949309438       0.5000949795885394       0.697252931484345        10.000002934088817       1                        0.12570968949309436      0.5000949795885391       0.6972529314843449
0.07651246653653855       0.5810271913887898       0.6369979760859488       9.99998725088471         1                        0.07651246653653858      0.5810271913887898       0.6369979760859489
0.28812272815291023       0.650587434906945        0.40399995225158036      10.000016624708831       1                        0.2881227281529101       0.6505874349069454       0.4039999522515802
0.21565698903596014       0.6657832185328357       0.4555645610251786       10.000053532397208       1                        0.21565698903596012      0.6657832185328357       0.4555645610251789
0.15753910326762713       0.7595679974148757       0.456447642246085        10.000074747086456       1                        0.15753910326762718      0.7595679974148761       0.45644764224608475
0.12341068172148126       0.7378467480273471       0.5099591569178094       10.000021965028356       1                        0.12341068172148126      0.7378467480273474       0.5099591569178094
0.16953383537872072       0.7018149832800914       0.482761858971494        9.99998099701326         1                        0.16953383537872077      0.7018149832800913       0.48276185897149404
0.28174663639222414       0.6751231795063376       0.510214857819652        10.000050495996085       1                        0.2817466363922242       0.6751231795063378       0.5102148578196519
0.0684164671854199        0.555128218146807        0.8025576296887607       9.99998845434195         1                        0.06841646718541991      0.555128218146807        0.8025576296887603
0                         0.5912113269163203       0.8306854786426909       9.999981754671516        1                        0                        0.5912113269163204       0.8306854786426908
0.07559704949759728       0.5749147724873112       0.7003708873059441       10.0000111539895         1                        0.07559704949759728      0.5749147724873112       0.7003708873059439
0                         0.6339587870303955       0.7450031003096131       9.999953380604435        1                        0                        0.6339587870303954       0.7450031003096133
0.07325970115675519       0.6016648267531962       0.750690773663574        9.999987588817723        1                        0.07325970115675522      0.6016648267531964       0.7506907736635742
0.24230114571954714       0.8014557018611321       0.3176777941923953       9.999998863090392        1                        0.24230114571954703      0.8014557018611324       0.3176777941923952
0.3390280702802317        0.8164137140071307       0.2394367357351399       10.000000676125637       1                        0.33902807028023163      0.8164137140071307       0.2394367357351399
0.49360677141777665       0.8411793915874518       0.20457819477130312      10.000020624866671       1                        0.49360677141777687      0.8411793915874524       0.2045781947713031
0.4456445634080878        0.9131427890555949       0.15716332100918537      10.000044222589057       1                        0.44564456340808783      0.9131427890555949       0.1571633210091853
0.510481085805511         0.8718809649815076       0.17035110232058984      10.000049835671453       1                        0.5104810858055108       0.8718809649815072       0.1703511023205899
0.41917231606675276       0.8410653270555889       0.23949157748634725      10.000009196035494       1                        0.4191723160667528       0.8410653270555886       0.23949157748634708
0.34653419870484464       0.885117086899257        0.26514754518561506      10.00006532317106        1                        0.34653419870484464      0.885117086899257        0.265147545185615
0.303665046121169         1                        0.17217329761675018      9.999982634019418        1                        0.30366504612116896      1                        0.17217329761675024
0.3631019678006762        0.9312966271078738       0.21222689572967562      10.000024494034745       1                        0.36310196780067633      0.9312966271078732       0.2122268957296756
0.1692015250377463        1                        0.31456374769472434      9.99996234677636         1                        0.1692015250377463       1                        0.3145637476947244
0.3266992526644821        0.9392200075833539       0.24967302989803003      10.00003542679495        1                        0.3266992526644819       0.9392200075833539       0.24967302989803006
0.27208772065533987       0.949363699173127        0.29255038050434246      9.999986876713075        1                        0.27208772065533987      0.9493636991731268       0.2925503805043424
0.25301820929776936       1                        0.25663916676163295      10.000015294332494       1                        0.25301820929776936      1                        0.2566391667616329
0.4077088536636079        1                        0.1744663171065733       10.000001556636523       1                        0.4077088536636079       1                        0.17446631710657326
0.40062207639806036       0.9491073534684055       0.2611357107210894       10.000043675362797       1                        0.4006220763980604       0.9491073534684059       0.2611357107210894
0.4388766721100566        0.9523176276209079       0.20990426214684405      9.99998342987264         1                        0.43887667211005676      0.9523176276209075       0.20990426214684407
0.42554246154377606       0.34980194819610055      0.5685741221728976       10.000025276629286       1                        0.4255424615437759       0.34980194819610055      0.5685741221728976
0.5000211839344175        0.33733157442904904      0.5549611367729446       9.999987378627718        1                        0.5000211839344175       0.33733157442904904      0.5549611367729448
0.3185783694535653        0.37577080193763945      0.6016863602514356       9.999923217497088        1                        0.31857836945356516      0.37577080193763934      0.6016863602514353
0.2279782436922464        0.3679621087191655       0.7001115800070293       9.999964593576935        1                        0.22797824369224626      0.3679621087191655       0.7001115800070292
0.2779921090979845        0.4005723996319783       0.6497640805003401       9.999962077187416        1                        0.27799210909798444      0.4005723996319783       0.6497640805003401
0.4939985834525714        0.2608961472579527       0.6938085119851898       10.000026032236084       1                        0.49399858345257125      0.2608961472579526       0.6938085119851896
0.39730735222777547       0.24618942219945122      0.7098828214475181       10.000016729837112       1                        0.39730735222777547      0.2461894221994513       0.7098828214475182
0.34413490864934404       0.2541490182294028       0.7932406506664686       10.000007101853406       1                        0.34413490864934404      0.2541490182294028       0.793240650666469
0.3074334552521797        0.31967002186464377      0.8025206063058788       10.000054285867432       1                        0.30743345525217963      0.31967002186464377      0.8025206063058793
0.3990699160926662        0.25166742519327717      0.7719430740069108       10.000004185469102       1                        0.3990699160926662       0.2516674251932773       0.7719430740069106
0.46691990883479173       0.20422439438122325      0.816729121253829        9.99996120181758         1                        0.4669199088347914       0.20422439438122333      0.8167291212538289
0.28415155573198264       0.3426165316086688       0.7283479592035825       10.000057844511955       1                        0.28415155573198264      0.34261653160866873      0.7283479592035822
0.4866572354765659        0.24478852548107327      0.7649337335269304       9.999981715373746        1                        0.4866572354765656       0.24478852548107335      0.7649337335269307
0.5156822305759795        0.16963851113995884      0.8705255227348739       9.999996373449715        1                        0.5156822305759795       0.1696385111399588       0.870525522734874
0.6209798929821441        0.09505236567875244      0.9284990629607948       9.999995301475323        1                        0.620979892982144        0.09505236567875247      0.9284990629607948
0.5499999999999998        0.08660254037844396      1                        10.00001428555145        1                        0.5499999999999998       0.08660254037844399      1
0.4760085040754858        0.15423317524547456      0.937004366807169        10.000020804948457       1                        0.47600850407548567      0.15423317524547459      0.9370043668071693
0.45                      0.08660254037844396      1                        10.00001996762328        1                        0.4500000000000001       0.08660254037844396      1
0.14047897551288205       0.3426969553137719       0.9475196357116704       10.000002073357157       1                        0.14047897551288202      0.3426969553137719       0.9475196357116707
0.21159045490851852       0.29727515753760575      0.9382144150069149       9.999992779271969        1                        0.21159045490851852      0.2972751575376058       0.9382144150069147
0.17275912780753458       0.3072080043734928       1                        10.00000295601176        1                        0.17275912780753463      0.3072080043734928       1
0.17237483007811663       0.39659514492344317      0.936126914177005        10.00002644927027        1                        0.17237483007811666      0.39659514492344317      0.9361269141770053
0.40083247995755683       0.25714542818710306      0.8340033265663033       10.000015164265513       1                        0.4008324799575567       0.25714542818710306      0.8340033265663034
0.4148672967527527        0.18288656367317233      0.9276971752712363       10.000008799343634       1                        0.4148672967527529       0.18288656367317238      0.9276971752712364
0.4765584922158443        0.22233408639544         0.91731000380356         10.000020651226642       1                        0.47655849221584407      0.22233408639544008      0.9173100038035603
0.4154927979393649        0.23902597382582869      0.9069651645683972       10.00003111338981        1                        0.4154927979393649       0.23902597382582869      0.9069651645683974
0.2809407959487588        0.22823685038437863      0.9382144150069149       9.999963127907291        1                        0.2809407959487587       0.22823685038437871      0.9382144150069146
0.31145980988801525       0.1691313900670386       1                        10.000009996455796       1                        0.31145980988801536      0.16913139006703853      1
0.40880631860213756       0.17173446908548884      1                        9.99996590438257         1                        0.40880631860213773      0.1717344690854889       1
0.36454715778617247       0.22399099684510176      0.942927259719829        10.000009194037787       1                        0.36454715778617236      0.22399099684510185      0.9429272597198294
0.35442710366288543       0.25571786125621737      0.8966203253332343       9.999993237230258        1                        0.3544271036628856       0.25571786125621726      0.8966203253332344
0.2548035593702902        0.2541066624322553       1                        10.000009381622906       1                        0.2548035593702903       0.2541066624322554       1
0.1368329343708398        0.5190451093772936       0.7744297807348304       9.999974594830437        1                        0.13683293437083985      0.5190451093772933       0.7744297807348307
0.16896233365988136       0.47531505484182834      0.7390570388921781       10.000013064358342       1                        0.16896233365988145      0.47531505484182834      0.7390570388921778
0.23740584874240367       0.42537399732631714      0.6978418007492446       10.00001864090578        1                        0.23740584874240367      0.42537399732631725      0.697841800749245
0.2447639935064147        0.35660418455132803      0.8172017867547874       9.999995676047485        1                        0.24476399350641473      0.356604184551328        0.8172017867547868
0.17196486218404464       0.46957115235150304      0.807773062757859        9.999968862225712        1                        0.17196486218404464      0.4695711523515029       0.807773062757859
0.22225131936982656       0.42273559632601476      0.7694790727650662       10.000008493944712       1                        0.22225131936982656      0.4227355963260148       0.769479072765066
0.20709678999724945       0.42009719532571244      0.8411163447808877       9.999947030216909        1                        0.2070967899972494       0.4200971953257123       0.8411163447808876
0.16854097782869773       0.6721914927095269       0.5457452789383328       9.999984125940152        1                        0.1685409778286978       0.6721914927095266       0.5457452789383326
0.1585174353067247        0.5799931828806069       0.5543600295122019       9.999981155575586        1                        0.1585174353067247       0.5799931828806068       0.5543600295122016
0.2575998002869801        0.6265116584286634       0.540942725385343        10.000035524223023       1                        0.25759980028697993      0.6265116584286634       0.5409427253853427
0.1745887885297747        0.5440623229622862       0.6108478359035543       10.000024281429948       1                        0.17458878852977475      0.5440623229622864       0.6108478359035542
0.1906601417528247        0.5081314630439655       0.6673356422949067       10.000014840738766       1                        0.19066014175282475      0.5081314630439657       0.6673356422949067
0.3528470762535309        0.5088684795923843       0.5246189358265091       10.000043003988973       1                        0.35284707625353096      0.5088684795923845       0.5246189358265093
0.3338736238410261        0.44933681727502117      0.5344752399205202       9.999988842728586        1                        0.33387362384102626      0.44933681727502145      0.53447523992052
0.45334350164804765       0.40222317025346555      0.5021588230401647       10.000018530865326       1                        0.45334350164804776      0.4022231702534657       0.502158823040165
0.386948487781985         0.4515603559881873       0.4968009971551656       9.999992898055536        1                        0.3869484877819851       0.45156035598818717      0.4968009971551658
0.4116485608168554        0.5190198564236475       0.4886628145826482       10.00000950303883        1                        0.4116485608168556       0.5190198564236473       0.4886628145826482
0.4038277444973113        0.4036249416556459       0.5342019888857169       9.999955264004216        1                        0.40382774449731146      0.40362494165564583      0.5342019888857171
0.4863204682308502        0.4547394456400524       0.4974327361908074       9.999935025237574        1                        0.48632046823085034      0.4547394456400526       0.49743273619080747
0.3170348706134495        0.5685299349427896       0.5608292484040146       10.000025303906977       1                        0.3170348706134494       0.5685299349427896       0.5608292484040143
0.2951488586747591        0.46984309659358153      0.5997856501205233       9.999948088496405        1                        0.2951488586747591       0.46984309659358164      0.5997856501205233
0.2429045002137919        0.4889872798187735       0.633560646207715        9.99996655054273         1                        0.24290450021379184      0.48898727981877355      0.6335606462077155
0.25384750618313706       0.5383306989933775       0.6140824453494607       10.000046819708023       1                        0.25384750618313695      0.5383306989933773       0.6140824453494603
0.14998462429134587       0.9410974506346118       0.45007420174821355      10.000024007223487       1                        0.14998462429134596      0.9410974506346116       0.45007420174821355
0.08660254037844396       1                        0.45                     9.999999700844144        1                        0.08660254037844398      1                        0.4500000000000001
0                         1.0000000000000002       0.49999999999999994      9.999974136200851        1                        0                        1.0000000000000002       0.4999999999999999
0.1673857182181344        1                        0.4065831393141952       9.999980892252168        1                        0.1673857182181344       1                        0.4065831393141952
0                         0.5                      1                        10.00000087352723        1                        0                        0.5                      1
0.08660254037844396       0.45                     1                        9.999963966088549        1                        0.08660254037844398      0.4500000000000001       1
0.17022361499846653       0.40351112245612064      1                        10.000010461555517       1                        0.17022361499846655      0.4035111224561207       1
0.10805094761548892       0.5134873554694575       0.8354118826006766       10.000003792611459       1                        0.10805094761548892      0.5134873554694577       0.8354118826006761
0.06460406821078453       0.5799909799980857       0.8615857787374533       9.999983689293598        1                        0.06460406821078453      0.5799909799980855       0.8615857787374531
0                         0.5499999999999999       0.913397459621556        10.000009606102685       1                        0                        0.5499999999999999       0.9133974596215562
0.12801606343326408       0.4667951030500484       0.932515451403494        9.99998312942797         1                        0.12801606343326408      0.46679510305004834      0.9325154514034937
0.07926896086013803       0.5079296015616213       0.8963939844665227       10.000009066305173       1                        0.07926896086013803      0.5079296015616209       0.896393984466523
0                         0.9133974596215564       0.5499999999999998       9.999991932392438        1                        0                        0.9133974596215565       0.5499999999999998
0.06629176518227865       0.89779618044539         0.5217826320911159       9.999994357840562        1                        0.06629176518227868      0.8977961804453899       0.5217826320911155
0.08928226017533537       0.7960545379779159       0.5183709271539905       10.000018091895972       1                        0.08928226017533537      0.7960545379779161       0.5183709271539901
0.13258353036455736       0.8821949012692236       0.4935652641822319       10.00003350152028        1                        0.1325835303645574       0.8821949012692233       0.4935652641822319
0.14506131681609227       0.8208814493420497       0.47500645321415846      10.000003437011802       1                        0.14506131681609225      0.8208814493420495       0.47500645321415835
0                         0.6446579322948084       0.9155785473574278       9.999942363535974        1                        0                        0.6446579322948083       0.9155785473574275
0                         0.6                      1                        10.000022366090333       1                        0                        0.6                      1
0.08660254037844396       0.5499999999999999       1                        9.999982358364665        1                        0.08660254037844398      0.5499999999999999       1
0.07926896086013803       0.6272456772140403       0.8556607919014723       10.000005193928164       1                        0.07926896086013803      0.6272456772140402       0.8556607919014724
0                         0.6886321513048381       0.8319310744914549       9.99997564929573         1                        0                        0.688632151304838        0.8319310744914551
0.06079166923614916       0.6048537418493644       0.920613927786146        10.000014249739213       1                        0.06079166923614918      0.6048537418493644       0.920613927786146
0.09876555699551129       0.6469775774262959       0.796181997857897        9.999992051601591        1                        0.09876555699551127      0.6469775774262961       0.7961819978578968
0.056792430957778764      0.6841294416713434       0.7660815486785276       9.999999986659384        1                        0.05679243095777876      0.6841294416713434       0.7660815486785278
0                         0.6743552264040628       0.6697652444563269       9.999971843403328        1                        0                        0.6743552264040626       0.669765244456327
0                         0.7449220920712535       0.746598122447939        9.999934588454126        1                        0                        0.7449220920712534       0.7465981224479388
0                         0.7486704938119413       0.6400342775899062       10.000022654153797       1                        0                        0.7486704938119413       0.6400342775899064
0.06587183514428453       0.8465969386595869       0.5768563049968269       10.000001850977764       1                        0.06587183514428457      0.8465969386595872       0.576856304996827
0                         0.8264227041206925       0.5981325013971704       9.99997794654678         1                        0                        0.8264227041206927       0.5981325013971704
0                         0.7670804528387493       0.838974391926782        9.999999414815445        1                        0                        0.7670804528387495       0.8389743919267821
0.1095930353715007        0.9410974506346118       0.5217826320911159       10.000067756845034       1                        0.1095930353715007       0.9410974506346117       0.5217826320911156
0.05437658764775617       0.9172299547946845       0.6184564195537924       9.999990178426524        1                        0.05437658764775619      0.9172299547946848       0.6184564195537926
0.10875317529551234       0.9210624499678128       0.5869128391075848       10.000047245318754       1                        0.10875317529551237      0.9210624499678131       0.586912839107585
0.08660254037844396       1                        0.5499999999999998       10.000057471253271       1                        0.08660254037844398      1                        0.5499999999999998
0                         0.913397459621556        0.6499999999999999       10.00001500704334        1                        0                        0.9133974596215562       0.65
0                         1                        0.5999999999999998       10.00004175919936        1                        0                        1                        0.5999999999999998
0.07328045153626568       0.7178721228487803       0.8544870603077545       9.999995127934707        1                        0.07328045153626571      0.7178721228487802       0.8544870603077542
0.0799422847147674        0.6788923690581764       0.8914521610276747       9.999967756557451        1                        0.07994228471476744      0.6788923690581767       0.8914521610276747
0                         0.7376332476167277       0.9130623769430306       10.000031896996344       1                        0                        0.7376332476167277       0.9130623769430309
0                         0.7                      1                        9.99999427086894         1                        0                        0.7000000000000001       1
0.5740288155248329        0.834952703703651        0.228320724867842        10.000083790733171       1                        0.5740288155248333       0.8349527037036506       0.22832072486784205
0.5402855720911555        0.7692835056884484       0.23801148741484496      10.00005563152942        1                        0.5402855720911556       0.7692835056884486       0.2380114874148449
0.3219392198448489        0.8411578578049331       0.323178074286124        10.000023079596625       1                        0.3219392198448487       0.8411578578049335       0.32317807428612416
0.35272120767678744       0.7835883172636122       0.317894554325196        10.000039774504007       1                        0.35272120767678755      0.7835883172636122       0.3178945543251961
0.2942999454458115        0.7119572651175216       0.3999273513877831       9.999971037018359        1                        0.29429994544581134      0.7119572651175212       0.399927351387783
0.33487803914511843       0.6760591261032008       0.4393619013646053       9.99994771241888         1                        0.3348780391451183       0.6760591261032011       0.4393619013646051
0.39977428991368896       0.6399577029699591       0.4263655712483635       10.000033112467207       1                        0.39977428991368913      0.639957702969959        0.42636557124836355
0.3793601025335691        0.6918858428883178       0.3853902886922886       9.999972486295395        1                        0.3793601025335693       0.691885842888318        0.38539028869228875
0.4688513147251441        0.7946700582756023       0.2554776903992635       10.000026097488108       1                        0.46885131472514435      0.7946700582756026       0.25547769039926366
0.4107862612009658        0.7891291877696073       0.28668612236222973      10.000068898972208       1                        0.4107862612009657       0.789129187769607        0.28668612236222984
0.42384216592201973       0.7077125596734348       0.3314186760199718       10.000076179028163       1                        0.42384216592201973      0.7077125596734352       0.3314186760199718
0.4029505853165083        0.7795949073747797       0.35286317188895117      10.000006265612019       1                        0.40295058531650846      0.7795949073747794       0.35286317188895117
0.4975627000650904        0.7421819015175187       0.3134775326584615       10.000057050171186       1                        0.4975627000650905       0.7421819015175187       0.3134775326584615
0.19247080135043954       0.9471433880588341       0.36096398168864346      9.99998555901298         1                        0.1924708013504395       0.9471433880588338       0.36096398168864335
0.2911572320129104        0.898727398346254        0.32846159424705196      10.00007076766733        1                        0.2911572320129104       0.8987273983462538       0.3284615942470522
0.8066840769276319        0.7893803906208072       0.061956012193356516     10.000041512010808       1                        0.8066840769276313       0.7893803906208067       0.061956012193356495
0.7670804528387494        0.838974391926782        0                        10.000087094580612       1                        0.7670804528387495       0.8389743919267822       0
0.7501905855412336        0.8465501371952961       0.07541811122214799      10.000093522186631       1                        0.7501905855412333       0.8465501371952963       0.07541811122214796
0.7376332476167278        0.9130623769430306       0                        10.000035760624327       1                        0.7376332476167278       0.9130623769430309       0
0.7139917296482072        0.9277442421991701       0.059807856929687056     10.000061734918475       1                        0.7139917296482069       0.9277442421991703       0.05980785692968708
0.688979325269263         0.8848522149106189       0.07541811122214799      10.000082091866771       1                        0.6889793252692633       0.8848522149106192       0.07541811122214796
0.8553241256720017        0.8799019792505068       0.05595536854087703      10.000037491392618       1                        0.855324125672002        0.8799019792505068       0.05595536854087703
0.8439978922221444        0.9081483760957388       0                        10.000081758928253       1                        0.8439978922221444       0.9081483760957387       0
0.8000000000000002        1                        0                        10.00011535152614        1                        0.8                      1                        0
0.8877132725272346        0.7984629671847252       0.0494017342375422       9.999995893412425        1                        0.8877132725272346       0.7984629671847254       0.04940173423754221
0.9256718313367509        0.8457961231987361       0                        10.000054454545982       1                        0.9256718313367505       0.8457961231987364       0
1                         0.7999999999999999       0                        10.000073381317547       1                        1                        0.7999999999999999       0
0.9003469771608081        0.8878425752833191       0.05595536854087703      10.00009335077069        1                        0.9003469771608081       0.887842575283319        0.055955368540877036
0.9340435951997574        0.9240295681613634       0                        10.000069130161611       1                        0.9340435951997571       0.9240295681613636       0
1                         0.8999999999999999       0                        10.000125323380816       1                        1                        0.9                      0
0.8572302495758287        0.532820562045219        0.16611640361405414      10.000024869779583       1                        0.8572302495758282       0.5328205620452188       0.16611640361405416
0.7650255817016125        0.5582565683539972       0.19195373276520006      9.999991960791766        1                        0.7650255817016124       0.558256568353997        0.19195373276520003
0.8152698901564647        0.49065175274216716      0.2025291180484492       10.00000188509191        1                        0.8152698901564647       0.49065175274216705      0.2025291180484493
0.8386755382025234        0.45349291788312346      0.23497029921516305      9.99996124786173         1                        0.8386755382025232       0.45349291788312324      0.23497029921516308
0.7813587015759342        0.47368780359844         0.24675225878441415      10.00003091890504        1                        0.7813587015759342       0.4736878035984401       0.24675225878441415
0.5716977140169158        0.7127765327380768       0.28775671420656773      10.000050790827988       1                        0.5716977140169157       0.7127765327380771       0.2877567142065676
0.6110479871805851        0.4297058834693612       0.338678517840189        10.000053259215834       1                        0.6110479871805853       0.4297058834693613       0.3386785178401891
0.6933295762617586        0.330919144027078        0.3957442499489831       10.000062327374598       1                        0.6933295762617586       0.330919144027078        0.395744249948983
0.5721121938256705        0.6489018221145512       0.2799770391161842       10.000044236213085       1                        0.5721121938256707       0.6489018221145512       0.2799770391161844
0.5845402382924978        0.5677305805018954       0.28504240958431304      9.999971658172216        1                        0.5845402382924975       0.5677305805018952       0.285042409584313
0.670910768824457         0.575401121971897        0.23723600605192724      10.000000636151265       1                        0.6709107688244571       0.575401121971897        0.23723600605192724
0.6270524641808508        0.6009874709931823       0.255238670173113        10.000011795218098       1                        0.6270524641808509       0.6009874709931823       0.25523867017311297
0.6152888332151213        0.501616693661413        0.27675289444896395      10.000028887473208       1                        0.6152888332151213       0.501616693661413        0.27675289444896395
0.669661784083822         0.43382211846581953      0.32148853563821883      10.0000017584874         1                        0.6696617840838219       0.43382211846581953      0.3214885356382187
0.6722568475797103        0.5165578824593247       0.24903708134194136      9.99994734105365         1                        0.6722568475797103       0.5165578824593247       0.2490370813419415
0.6485936506510862        0.3922300772015128       0.3906655833879157       9.999976733010271        1                        0.6485936506510863       0.3922300772015126       0.3906655833879158
0.3718205286660357        0.5684001419097475       0.5147626317324981       9.999991230178752        1                        0.3718205286660358       0.5684001419097477       0.5147626317324984
0.44070898332627506       0.6588228711204319       0.36878025088978245      9.999977917257365        1                        0.4407089833262751       0.6588228711204318       0.3687802508897826
0.4201884772938088        0.5880295630516004       0.46734085380443846      10.000021876953856       1                        0.42018847729380876      0.5880295630516005       0.4673408538044386
0.5333304190920839        0.6723066674106671       0.3163497559606577       9.999991003883927        1                        0.5333304190920837       0.6723066674106675       0.31634975596065756
0.49496312416725197       0.6318368020832575       0.3449427977147476       9.999967942508615        1                        0.4949631241672523       0.6318368020832577       0.3449427977147474
0.5402134233353065        0.5624554583018755       0.3238658879184034       10.000045859757192       1                        0.5402134233353063       0.5624554583018759       0.3238658879184034
0.4575758007305304        0.6099331825674289       0.40614182575959307      10.000007546986003       1                        0.4575758007305303       0.609933182567429        0.40614182575959307
0.4855910415579141        0.5678898249151593       0.3644971588043265       10.000053629646349       1                        0.48559104155791394      0.5678898249151593       0.3644971588043264
0.5983433689977453        0.45351897686207815      0.3932101576702678       10.000004100841064       1                        0.5983433689977454       0.4535189768620781       0.3932101576702678
0.6498011301567169        0.5573334745322123       0.30418851725018914      10.000051414852452       1                        0.649801130156717        0.5573334745322124       0.3041885172501892
0.6315415235367671        0.5020607569038402       0.34886941237254737      10.000018089756672       1                        0.6315415235367667       0.5020607569038406       0.34886941237254737
0.7282755809870591        0.4379383534622779       0.3042985534362486       10.000006850888232       1                        0.7282755809870592       0.43793835346227766      0.30429855343624884
0.7000814758090476        0.3942360700756345       0.36554465610844283      10.000041504357434       1                        0.7000814758090476       0.39423607007563466      0.3655446561084428
0.8259250429111699        0.6279171962243899       0.13591331169167206      10.000032589533417       1                        0.8259250429111696       0.6279171962243898       0.135913311691672
0.8247931838699825        0.5942516364897367       0.20386996753750808      10.000019809294852       1                        0.8247931838699821       0.5942516364897369       0.203869967537508
0.7610237068877959        0.6680844805760052       0.13877625963202636      10.000035616645455       1                        0.7610237068877956       0.6680844805760056       0.13877625963202644
0.6961223708644219        0.7082517649276205       0.14163920757238072      10.000052548818063       1                        0.6961223708644222       0.7082517649276205       0.14163920757238072
0.6730210139844526        0.8073153563966342       0.13019903872112967      10.000066151442184       1                        0.6730210139844529       0.8073153563966343       0.13019903872112962
0.7242149861217042        0.7699178323146487       0.13413711512244755      10.000016872165359       1                        0.7242149861217047       0.7699178323146486       0.13413711512244755
0.7366238462843799        0.648911301815846        0.2095958634182168       10.000023308164804       1                        0.73662384628438         0.6489113018158459       0.20959586341821684
0.64732264965759          0.6699054074073021       0.2832784151447615       10.000045098217827       1                        0.6473226496575902       0.6699054074073024       0.28327841514476143
0.6695646900692038        0.6342443614844692       0.22543493076191307      10.000036102126613       1                        0.6695646900692043       0.6342443614844693       0.22543493076191307
0.6346118628571761        0.7737190772536201       0.18547725025954956      10.000053397298728       1                        0.6346118628571761       0.7737190772536201       0.18547725025954961
0.7004106239547804        0.7018790176909214       0.20209931881305315      10.000065772434441       1                        0.7004106239547805       0.7018790176909211       0.20209931881305315
0.8084204723315462        0.8491028598002854       0.09366442415195099      10.000088295575871       1                        0.8084204723315462       0.8491028598002857       0.09366442415195102
0.7591853871550387        0.5249393950110028       0.26682395914050505      9.99997218375104         1                        0.759185387155039        0.5249393950110032       0.2668239591405052
0.727421326665965         0.5816235669302254       0.27372023408947294      10.00005988542864        1                        0.727421326665965        0.5816235669302258       0.27372023408947305
0.7144813517051097        0.630043592990394        0.27492098939302656      10.000010475655404       1                        0.7144813517051101       0.6300435929903939       0.27492098939302656
0.7755413257473801        0.6200939185100628       0.2693027873046072       10.000013511065987       1                        0.7755413257473799       0.6200939185100629       0.2693027873046071
0.789794209630116         0.7969561358893213       0.1373741234155045       10.00003130925185        1                        0.7897942096301164       0.796956135889321        0.13737412341550448
0.7754089582589561        0.7325203082326632       0.13807519152376543      9.999957337167778        1                        0.7754089582589558       0.7325203082326633       0.13807519152376543
0.8462877010165144        0.7397863893148323       0.12391202438671303      10.000075725176531       1                        0.8462877010165144       0.7397863893148324       0.12391202438671298
0.9231438505082572        0.6948931946574161       0.1052572823825785       10.00000631318101        1                        0.9231438505082572       0.6948931946574161       0.10525728238257855
0.9404853775149555        0.7464892378334638       0.07382610603088564      10.000093393632515       1                        0.9404853775149553       0.7464892378334637       0.07382610603088563
0.8790591817154559        0.6970342621798912       0.14982798241790288      10.000005777184908       1                        0.8790591817154562       0.6970342621798913       0.1498279824179029
0.9333251795609294        0.8008321039955713       0.0988034684750844       10.000064365604826       1                        0.9333251795609291       0.8008321039955711       0.09880346847508441
1                         0.7500086255858677       0.08569619986841474      10.00009769844054        1                        1                        0.7500086255858676       0.08569619986841472
1                         0.6499999999999999       0.08660254037844396      10.000055098335816       1                        1                        0.65                     0.08660254037844396
1                         0.5009170318702545       0.1722645281910181       10.000069990542029       1                        1                        0.5009170318702544       0.17226452819101806
0.912962521455585         0.6357940769349754       0.1993814065231223       10.000005474787125       1                        0.9129625214555857       0.6357940769349749       0.19938140652312245
1                         0.5994773863333054       0.17149982135691091      10.000051477252152       1                        1                        0.5994773863333053       0.1714998213569109
0.9480054257927603        0.6710232711976986       0.15208704998079883      10.000046798774727       1                        0.9480054257927601       0.6710232711976988       0.15208704998079886
0.8156555060198425        0.40547604032875195      0.27795794455890316      10.000027546131513       1                        0.8156555060198429       0.405476040328752        0.2779579445589031
0.8927788387912944        0.3676322814884536       0.24746717679472874      10.000036120201719       1                        0.8927788387912942       0.36763228148845345      0.2474671767947286
0.8699974027442534        0.41437348899273474      0.27428307627427856      10.00011294275114        1                        0.8699974027442534       0.41437348899273474      0.2742830762742786
0.9341146655868219        0.43378003809922183      0.24667611830543662      10.000012309618802       1                        0.934114665586822        0.43378003809922194      0.24667611830543654
0.9026172808292783        0.534445757266265        0.21782330258735672      10.000004296282206       1                        0.902617280829279        0.5344457572662652       0.21782330258735683
0.8943018470304991        0.4781910944750356       0.2732298497658293       10.000010883917179       1                        0.894301847030499        0.4781910944750359       0.27322984976582926
0.822173666505599         0.46688474254552526      0.29579920756180944      10.000011500409537       1                        0.8221736665055988       0.4668847425455252       0.29579920756180933
0.9241062337224354        0.3260381419804303       0.3012595734334221       10.000047666226035       1                        0.9241062337224359       0.32603814198043035      0.30125957343342225
1                         0.2492129963481959       0.3601683098486304       9.999976361022163        1                        1                        0.2492129963481959       0.3601683098486305
1                         0.364719298676427        0.257286704283032        10.000023900466834       1                        1                        0.3647192986764269       0.25728670428303213
1                         0.3239467407281475       0.3317328403609852       10.000005616506554       1                        1                        0.3239467407281475       0.33173284036098527
0.9456937815375921        0.5196002390287107       0.27145641406106774      10.000004477801502       1                        0.9456937815375921       0.5196002390287104       0.27145641406106774
1                         0.45126674610286477      0.2603748316219267       10.00008751187985        1                        1                        0.45126674610286494      0.26037483162192665
0.8760456578955194        0.1688387619085954       0.5387260531246192       10.000006543594413       1                        0.8760456578955195       0.16883876190859542      0.5387260531246194
0.8224796723534942        0.15184019351586578      0.5717262669942883       9.999951551972979        1                        0.8224796723534946       0.15184019351586586      0.5717262669942881
0.712894967763081         0.21371793970041958      0.556544284462415        9.999994911617838        1                        0.7128949677630808       0.2137179397004196       0.556544284462415
0.7855129697725092        0.4203364773977516       0.3547966967622204       10.000045232302408       1                        0.7855129697725088       0.4203364773977515       0.3547966967622205
0.8816136622441206        0.3803746830656965       0.3416393813688539       10.000014340050981       1                        0.8816136622441206       0.3803746830656964       0.34163938136885386
0.7891149644375103        0.3587662566819077       0.39241079437669674      9.999998582417076        1                        0.7891149644375101       0.3587662566819077       0.3924107943766965
0.8976962929901304        0.21139466565821202      0.5021038337386494       10.000013258947963       1                        0.8976962929901301       0.21139466565821205      0.5021038337386495
0.8568896873946152        0.2852954337094017       0.38275601067293175      10.000030930650553       1                        0.8568896873946157       0.2852954337094017       0.3827560106729316
0.801039139212345         0.2844390320905705       0.4385596711362596       9.99999882250963         1                        0.8010391392123455       0.2844390320905703       0.4385596711362594
0.8447776490192794        0.23258822637519355      0.4235726902568342       10.000001200328366       1                        0.8447776490192792       0.23258822637519366      0.42357269025683425
0.8627506657676611        0.394362462217074        0.4081426552180987       9.999984282784595        1                        0.8627506657676615       0.3943624622170739       0.4081426552180989
0.8421517574834658        0.26310760551020357      0.5194787053607882       9.999982937329769        1                        0.8421517574834659       0.26310760551020357      0.519478705360788
0.9502597848030863        0.29542611557142917      0.3772414980507201       9.999963006916143        1                        0.9502597848030864       0.29542611557142906      0.3772414980507202
0.9005195696061725        0.2669054904147109       0.42275015574045494      9.999985979266931        1                        0.9005195696061727       0.26690549041471096      0.42275015574045494
1                         0.17320508075688779      0.5                      10.000008598291323       1                        1                        0.17320508075688773      0.5
0.9457140964635538        0.2747461432077533       0.47031897672225764      10.000058941967724       1                        0.9457140964635541       0.27474614320775337      0.4703189767222576
1                         0.2523513688293679       0.45609270321914547      10.00001409447195        1                        1                        0.2523513688293679       0.45609270321914536
0.7940435710121636        0.22177019646405433      0.5540145726017116       9.99998525537236         1                        0.7940435710121639       0.22177019646405421      0.5540145726017118
0.9444554644933354        0.24248649444847103      0.5080952677602364       10.000073589142259       1                        0.9444554644933354       0.24248649444847103      0.5080952677602363
0.8889109289866709        0.2326216200675742       0.5600978323013273       10.000004372914306       1                        0.8889109289866715       0.23262162006757417      0.5600978323013273
0.7457633795480649        0                        0.9148040961055744       9.999995277094245        1                        0.7457633795480649       0                        0.9148040961055747
0.7                       0                        1                        9.999975308142542        1                        0.7000000000000001       0                        1
0.9115778216430434        0                        0.7371952696504905       9.999985030792446        1                        0.9115778216430432       0                        0.7371952696504903
0.8373591623034142        0                        0.7639305953400881       10.000012726200369       1                        0.8373591623034143       0                        0.7639305953400883
0.8863936650462343        0.16810232254900967      0.6356504143772848       9.99999677674097         1                        0.8863936650462347       0.16810232254900964      0.6356504143772846
0.8889784019816398        0.10967579153969034      0.6591366275569319       9.999990431052435        1                        0.8889784019816394       0.10967579153969037      0.6591366275569323
0.9325404222423372        0.1170803072687894       0.6207433596559286       10.000014677722204       1                        0.9325404222423369       0.11708030726878944      0.620743359655929
0.9334906510824904        0.09533319339472893      0.6839632063590767       9.999941617205462        1                        0.9334906510824903       0.09533319339472895      0.6839632063590764
1                         0.08816786572871564      0.6471850556579785       9.999961263546037        1                        1                        0.08816786572871561      0.6471850556579783
0.9444554644933354        0.20261027930182862      0.5788952921294886       9.999959318565542        1                        0.9444554644933352       0.2026102793018287       0.5788952921294883
0.9431968325231171        0.21262198705890462      0.6377084425469971       9.999979478674557        1                        0.9431968325231173       0.21262198705890464      0.6377084425469969
1                         0.17259893853608305      0.5976927519576501       9.999987334644837        1                        1                        0.17259893853608305      0.5976927519576501
0.9387369409642872        0.07421185301300882      0.7639385074925241       9.999989790431094        1                        0.9387369409642868       0.07421185301300887      0.7639385074925241
1                         0                        0.7999999999999999       9.999956049679941        1                        1                        0                        0.7999999999999999
1                         0.08795076560252796      0.7432059989558445       9.999994453216976        1                        1                        0.08795076560252797      0.7432059989558446
0.3461508970608332        0.33319473485519807      0.7395966320604553       9.999963427940028        1                        0.34615089706083324      0.333194734855198        0.7395966320604555
0.3426032507615697        0.367852889094093        0.6785664079728934       9.999981274617967        1                        0.34260325076156994      0.3678528890940929       0.6785664079728932
0.25042178200950244       0.2873423107017187       0.8764288300138299       9.999978005407174        1                        0.2504217820095025       0.28734231070171856      0.8764288300138294
0.2917474176461114        0.29561730955915105      0.9276431860977792       10.000008339273561       1                        0.2917474176461114       0.29561730955915094      0.9276431860977788
0.3340057711274303        0.3119701152871445       0.8624986006282742       10.00000995632137        1                        0.33400577112743046      0.3119701152871446       0.8624986006282745
0.16942958648808418       0.4835902061000968       0.865030902806988        9.99997678097021         1                        0.16942958648808426      0.4835902061000967       0.8650309028069881
0.16799324529939993       0.5127423312954104       0.9361053530296194       9.999972341606139        1                        0.16799324529939993      0.5127423312954102       0.9361053530296194
0.20537643128084676       0.3705918374939873       0.9060556143059921       10.000019594296424       1                        0.2053764312808468       0.37059183749398744      0.9060556143059915
0.20427068464335124       0.4504933345331144       0.9247341926423396       9.999992616118075        1                        0.20427068464335113      0.4504933345331144       0.92473419264234
0.4490051878338606        0.295621873470658        0.684209149596105        10.000021456844342       1                        0.44900518783386056      0.2956218734706581       0.684209149596105
0.3958042192977152        0.3317373812823755       0.6813877787844992       10.000033432319118       1                        0.3958042192977152       0.33173738128237557      0.6813877787844992
0.38497816369782734       0.4069423795308312       0.6174268885541556       10.000001783304056       1                        0.38497816369782717      0.4069423795308312       0.6174268885541562
0.5521875338644907        0.365926613068673        0.5354973399245745       10.000064836915893       1                        0.5521875338644906       0.3659266130686731       0.5354973399245745
0.430718388022307         0.3498970015253225       0.6302633344562732       10.000013708078363       1                        0.43071838802230694      0.3498970015253225       0.6302633344562735
0.5673575077439164        0.5292989464738216       0.39417595906840575      10.000013707335908       1                        0.5673575077439162       0.5292989464738215       0.39417595906840575
0.5737769543607742        0.36958352409804196      0.4343976677728164       10.00002329860097        1                        0.5737769543607741       0.3695835240980419       0.43439766777281674
0.5374114476445137        0.4123830736663878       0.48748937266694375      10.000049372081879       1                        0.5374114476445139       0.4123830736663876       0.4874893726669439
0.5609588913238879        0.4656167487743283       0.4474656129004871       10.000043941636031       1                        0.5609588913238882       0.4656167487743284       0.4474656129004871
0.4979107128217963        0.5465489472144216       0.43326630471583766      10.00005696678031        1                        0.49791071282179594      0.5465489472144219       0.43326630471583794
0.462843696368154         0.5440147815258002       0.48133033002435505      10.00002314456842        1                        0.46284369636815387      0.5440147815258001       0.48133033002435505
0.512067383510736         0.49353888151557024      0.49202739250628735      10.0000157000693         1                        0.512067383510736        0.4935388815155704       0.4920273925062873
0.2942089810732464        0.3824499393077205       0.7891100721546022       10.000038474784414       1                        0.2942089810732463       0.3824499393077206       0.7891100721546018
0.7117339963027755        0.05639629075087717      0.7158460069961675       9.999968459035996        1                        0.7117339963027756       0.056396290750877195     0.7158460069961675
0.7189573067657583        0.140287520282712        0.646425539865506        9.999927236227625        1                        0.7189573067657586       0.14028752028271196      0.646425539865506
0.7567387845966953        0.07153067686808846      0.6650838958165144       9.999965614156258        1                        0.7567387845966954       0.07153067686808849      0.6650838958165147
0.700625517577733         0.1100991621089121       0.6868026726286299       10.000013665840806       1                        0.7006255175777328       0.11009916210891207      0.6868026726286302
0.6933967192362857        0.1557468143120981       0.733920801439151        9.99996941940773         1                        0.6933967192362858       0.1557468143120981       0.733920801439151
0.6094452817043504        0.10769793524046603      0.8667310123034462       10.000020202983793       1                        0.6094452817043501       0.10769793524046602      0.8667310123034465
0.5850360896182525        0.15921435820615085      0.8458263303649861       9.99998717020427         1                        0.5850360896182527       0.15921435820615087      0.8458263303649859
0.7416915128612098        0.06608617220828163      0.846551510946398        9.999941531100937        1                        0.7416915128612095       0.06608617220828164      0.8465515109463981
0.7934543473973651        0                        0.8379124681506113       9.999984849812037        1                        0.7934543473973649       0                        0.837912468150611
0.650203216736932         0.14498399372192497      0.8296083097845149       9.9999397117349          1                        0.6502032167369319       0.144983993721925        0.829608309784515
0.6901212847377339        0.11715942941819249      0.865048977905535        9.999972498605747        1                        0.690121284737734        0.11715942941819255      0.8650489779055345
0.7466928622459085        0.07107627417995423      0.9226522226486363       9.999883068307375        1                        0.7466928622459083       0.07107627417995423      0.9226522226486364
0.7999999999999999        0                        1                        9.999984866594291        1                        0.7999999999999999       0                        1
0.8669813021649808        0.10249852106074217      0.720741357060175        9.9999433678725          1                        0.8669813021649804       0.10249852106074218      0.7207413570601748
0.8774738819285743        0.06047294042348973      0.7846710160292037       9.999946838099078        1                        0.8774738819285745       0.060472940423489746     0.784671016029204
0.906713607401658         0                        0.8443801674334485       10.00001237906307        1                        0.9067136074016579       0                        0.8443801674334481
0.7972301568201355        0.08056135373617691      0.7113221929790652       9.999969675475372        1                        0.7972301568201359       0.08056135373617691      0.7113221929790648
0.6958140723063454        0.11644699144839774      0.7760904833271522       9.999989848092705        1                        0.6958140723063454       0.11644699144839778      0.7760904833271524
0.7780863108640439        0.07707154619784891      0.7865731085560997       9.999944106200967        1                        0.7780863108640439       0.0770715461978489       0.7865731085560994
0.6202447978476717        0.15414309239569782      0.7650470931273896       9.999961141351672        1                        0.6202447978476718       0.1541430923956978       0.7650470931273895
0.58875656387023          0.18807163818664197      0.7199862388393522       9.999962170998641        1                        0.5887565638702301       0.18807163818664205      0.7199862388393522
0.8047987440186286        0.14056870878548086      0.6610899437119986       10.000003917018597       1                        0.8047987440186285       0.1405687087854809       0.6610899437119984
0.7545389418355153        0.17841594949030246      0.6279471707388113       10.000001766627923       1                        0.7545389418355152       0.17841594949030248      0.6279471707388109
0.6574022189658421        0.20441557636632302      0.751907151508633        10.000031183992881       1                        0.6574022189658421       0.2044155763663231       0.7519071515086329
0.6965160639700702        0.20108993588250074      0.6945814331119903       10.00001014530168        1                        0.6965160639700703       0.20108993588250085      0.6945814331119906
0.6870196982769344        0.2622497421588687       0.5514981532720685       10.000031491268228       1                        0.6870196982769344       0.26224974215886854      0.5514981532720689
0.6259266279743596        0.25                     0.5659059733355242       9.999989202517911        1                        0.6259266279743598       0.25                     0.5659059733355244
0.7049426076374371        0.20407921908753307      0.627882151148811        9.999917774332065        1                        0.7049426076374368       0.2040792190875331       0.6278821511488107
0.6612213459722148        0.2255449679412504       0.6302437032237572       10.000003048655625       1                        0.6612213459722152       0.22554496794125034      0.6302437032237571
0.7379235354221991        0.31820666272734416      0.4437834945082244       10.000011463324201       1                        0.7379235354221989       0.31820666272734416      0.4437834945082244
0.759578707797449         0.2877565755679344       0.5247500499235679       9.999995296435129        1                        0.7595787077974486       0.2877565755679345       0.5247500499235681
0.7832386665881119        0.3440744648490995       0.5060941838965227       10.000005605733099       1                        0.7832386665881118       0.3440744648490996       0.5060941838965227
0.6503672798032064        0.3009871466820589       0.5074566456078566       9.999969928130117        1                        0.6503672798032061       0.3009871466820588       0.5074566456078565
0.6748079316320533        0.35197429336411784      0.44900731788018916      10.000011283538077       1                        0.6748079316320532       0.3519742933641179       0.44900731788018916
0.7163575811498023        0.34119604231996864      0.514814329210319        10.000010934261192       1                        0.7163575811498023       0.3411960423199687       0.514814329210319
0.6461805814391672        0.2814157185510881       0.6673803142685164       10.00004124903905        1                        0.6461805814391676       0.28141571855108805      0.6673803142685165
0.604353883794564         0.394521651708297        0.5160335430762044       10.00001927913648        1                        0.6043538837945642       0.39452165170829717      0.5160335430762045
0.5877961084826739        0.32700518962353264      0.5597527222679194       9.999950687201126        1                        0.5877961084826743       0.32700518962353264      0.5597527222679196
0.6549189667506077        0.3196768470916438       0.5720497327794737       10.000038455079883       1                        0.6549189667506076       0.31967684709164396      0.5720497327794738
0.7220418250185415        0.31234850455975494      0.584346743291028        10.000004318889248       1                        0.7220418250185415       0.31234850455975494      0.5843467432910283
0.5184933125705634        0.3395706167198061       0.6350549199512481       10.000017259059073       1                        0.5184933125705631       0.3395706167198061       0.635054919951248
0.6062682371188198        0.3292442319142897       0.6398465054462229       9.999948258515966        1                        0.6062682371188202       0.3292442319142897       0.6398465054462226
0.6101035792706125        0.25496611583848144      0.7095603997149075       9.999958997275025        1                        0.6101035792706125       0.25496611583848144      0.7095603997149076
0.5407922385986768        0.2837888501071283       0.6581394250615138       9.999972763487978        1                        0.5407922385986766       0.28378885010712823      0.6581394250615136
0.553397170566189         0.2518557291827863       0.7397243216304735       10.000030239264747       1                        0.553397170566189        0.2518557291827862       0.7397243216304737
0.6499999999999999        0.08660254037844396      1                        9.99990568156073         1                        0.6500000000000001       0.08660254037844398      1
0.7500086255858677        0.08569619986841474      1                        9.999955566654934        1                        0.7500086255858677       0.08569619986841472      1
0.6971218271555162        0.10847869681474001      0.9265762859201673       10.000015950300085       1                        0.6971218271555164       0.10847869681474001      0.9265762859201668
0.5464384089172714        0.13788335958503964      0.9284990629607948       9.999956674512035        1                        0.5464384089172717       0.13788335958503958      0.9284990629607951
0.6475507920651239        0.14588111944952578      0.9305003491916982       9.99997620091316         1                        0.6475507920651238       0.14588111944952584      0.9305003491916984
0.5489499589787595        0.19437413985293694      0.7966110072822898       9.999975201703768        1                        0.5489499589787598       0.19437413985293703      0.7966110072822904
0.5063904337101985        0.21780372744660986      0.8585717770854073       9.999940261486374        1                        0.5063904337101982       0.21780372744660983      0.8585717770854076
0.6515898147772391        0.30563967152116917      0.7121244551394356       10.000032117037293       1                        0.6515898147772391       0.30563967152116933      0.7121244551394352
0.5717221064903438        0.21359571532043314      0.8799243874712815       9.999962842961988        1                        0.5717221064903436       0.21359571532043317      0.8799243874712811
0.7333007182437177        0.8541258824638103       0.15083622244429598      10.000044145865148       1                        0.7333007182437182       0.8541258824638108       0.15083622244429593
0.6609271410383674        0.9011642833812222       0.1357425659521845       10.000025317943965       1                        0.6609271410383676       0.9011642833812226       0.13574256595218456
0.5857070155584688        0.9474944755016581       0.13552312908506295      10.000062912141212       1                        0.585707015558469        0.9474944755016576       0.13552312908506303
0.6489501072807826        1                        0.0882773550434169       10.000066182482586       1                        0.6489501072807826       1                        0.08827735504341691
0.6903502116796867        0.9424261074553095       0.11961571385937406      10.000050748212495       1                        0.6903502116796862       0.9424261074553093       0.11961571385937403
0.745243775317462         1                        0.0886926525472316       10.000083244717418       1                        0.745243775317462        1                        0.08869265254723159
0.6536647668842753        0.8445392930837308       0.189578473656069        10.000030800089323       1                        0.6536647668842757       0.8445392930837308       0.18957847365606903
0.5373818984584542        0.9174763518518255       0.20084187972938222      10.000025364513153       1                        0.5373818984584542       0.917476351851825        0.20084187972938225
0.5007349813920756        1                        0.1733630345909225       10.000031955027683       1                        0.5007349813920756       1                        0.17336303459092248
0.6328749568074715        0.9174763518518255       0.1960670206822211       10.000035870186165       1                        0.6328749568074715       0.9174763518518251       0.19606702068222112
0.5856450907241494        0.9174763518518255       0.23959072977228751      10.000031053589932       1                        0.5856450907241494       0.9174763518518251       0.2395907297722876
0.5944171304781307        1                        0.1706648067639435       10.000040143703018       1                        0.5944171304781306       1                        0.17066480676394355
0.6106757325912114        0.7524290555554767       0.25579957000630177      10.00006076013573        1                        0.6106757325912114       0.7524290555554768       0.2557995700063016
0.6403832579305928        0.8344293551948984       0.25311576192371893      10.000028748389967       1                        0.6403832579305927       0.8344293551948984       0.25311576192371893
0.19145096113807253       0.8668070402379973       0.5028904776962257       9.999975144617999        1                        0.19145096113807247      0.8668070402379974       0.5028904776962257
0.21226833981762255       0.900604841397512        0.4550179484749765       9.999953738305123        1                        0.2122683398176225       0.9006048413975116       0.4550179484749765
0.22190621282764367       0.7232222197866361       0.48246620018453223      9.999962649711824        1                        0.22190621282764375      0.7232222197866363       0.4824662001845324
0.3004771627387128        0.7733270953280982       0.3958547505239859       9.999992861333702        1                        0.3004771627387128       0.7733270953280984       0.39585475052398594
0.22728474276858485       0.851030271629322        0.3863478713336859       10.000004399056577       1                        0.2272847427685847       0.8510302716293223       0.38634787133368614
0.2072497120172742        0.8143253918644748       0.460906344417636        9.99997011825109         1                        0.2072497120172742       0.8143253918644752       0.4609063444176359
0.24077884328513216       0.7706084188084835       0.43735058322448095      10.000016095051272       1                        0.24077884328513213      0.7706084188084836       0.4373505832244808
0.3646751091243515        0.6449782886551465       0.5008115226199985       10.000013270170928       1                        0.36467510912435175      0.6449782886551462       0.5008115226199981
0.08928226017533537       0.7161254986398186       0.5634706715895337       10.00001499732758        1                        0.08928226017533537      0.7161254986398187       0.5634706715895335
0.07559704949759728       0.636858494652368        0.623190669441097        9.999998474447084        1                        0.07559704949759728      0.6368584946523678       0.6231906694410971
0.15986753841194615       0.6390236436365365       0.6011579015029617       10.0000108103674         1                        0.1598675384119462       0.6390236436365364       0.6011579015029617
0.06545190510629036       0.7953976968737836       0.6319299779025379       9.999990798606232        1                        0.06545190510629036      0.7953976968737834       0.6319299779025377
0.08494554046695958       0.7188067984358392       0.6303738097801819       10.000023423288505       1                        0.08494554046695962      0.7188067984358392       0.6303738097801818
0.11009303519395805       0.7791251992877222       0.5936481749023518       9.999982190561628        1                        0.11009303519395801      0.7791251992877224       0.593648174902352
0.08060882075858379       0.7214880982318598       0.6972769479708302       10.000022155068864       1                        0.08060882075858379      0.7214880982318594       0.6972769479708298
0.18581899584721692       0.5379979776242768       0.8309675024900243       9.999953120202152        1                        0.18581899584721692      0.5379979776242769       0.8309675024900244
0.16726545221824454       0.5699249346452253       0.7130583304589427       9.999942998359309        1                        0.1672654522182446       0.5699249346452254       0.7130583304589426
0.07810293512809054       0.6482014353595854       0.6988239176383871       9.99999924984455         1                        0.07810293512809056      0.6482014353595852       0.6988239176383871
0.15119409899519456       0.605855794563546        0.6565705240675904       10.000000034893457       1                        0.15119409899519456      0.6058557945635458       0.6565705240675901
0.3058934724974682        0.7237347005840118       0.479486990253961        10.000000099754299       1                        0.30589347249746807      0.7237347005840117       0.4794869902539607
0.17856452035067075       0.7643898025384472       0.5371305283644637       9.999990753427907        1                        0.17856452035067075      0.764389802538447        0.5371305283644641
0.24493715130344723       0.7192660541891863       0.5501248791741999       9.999996700478752        1                        0.24493715130344726      0.7192660541891862       0.5501248791742003
0.20307739641030742       0.7086600792908262       0.5990403263339606       9.99997624635082         1                        0.2030773964103075       0.7086600792908263       0.5990403263339608
0.31130978225622363       0.6741423058399255       0.563119229983936        9.999989698519473        1                        0.3113097822562238       0.6741423058399255       0.5631192299839362
0.14073868303324386       0.6098257131812486       0.8262824470372664       10.000040410972408       1                        0.1407386830332439       0.6098257131812482       0.826282447037266
0.14387076268366442       0.6317184062464852       0.758781018622979        10.000012902349116       1                        0.14387076268366442      0.631718406246485        0.7587810186229793
0.2962151560047003        0.8461709384269492       0.4061626916458535       10.000040176630533       1                        0.29621515600470016      0.846170938426949        0.40616269164585356
0.4999754574268704        0.8574985067384316       0.26995981291364807      10.000012238535342       1                        0.49997545742687055      0.8574985067384313       0.26995981291364823
0.5384152246408273        0.9174763518518255       0.28311443886235393      9.999951196759111        1                        0.5384152246408273       0.9174763518518252       0.28311443886235393
0.39915642183164357       0.8354542334039101       0.3138802155195118       10.00004221948976        1                        0.39915642183164357      0.8354542334039105       0.3138802155195118
0.4674226655033127        0.9042647900685256       0.25282519022664035      10.000024032522271       1                        0.46742266550331263      0.9042647900685251       0.25282519022664035
0.4037056008168043        0.8897067838831099       0.2953202010993262       10.000026507698133       1                        0.40370560081680446      0.8897067838831099       0.29532020109932616
0.3575706017528327        0.9307080043586777       0.3106753985046295       10.000021346513117       1                        0.3575706017528326       0.9307080043586778       0.31067539850462933
0.3630371905738312        1                        0.2588935040696772       10.000009455595237       1                        0.36303719057383116      1                        0.2588935040696772
0.24999838002029948       1                        0.36124252880916935      10.000053270652415       1                        0.24999838002029942      1                        0.3612425288091693
0.32202787871757194       1                        0.33489178394582214      10.000011031395315       1                        0.32202787871757194      1                        0.3348917839458222
0.33004877439925967       0.9340880898267679       0.36559580750957904      10.00000097843653        1                        0.3300487743992597       0.9340880898267678       0.36559580750957904
0.4876010251600634        0.9483059366385226       0.28704513542400917      10.000042226886206       1                        0.4876010251600635       0.9483059366385226       0.28704513542400906
0.4243952714213638        0.9491073534684055       0.30199616965866255      10.000070698311958       1                        0.4243952714213639       0.9491073534684058       0.3019961696586625
0.4526929576323253        1                        0.26179051496449857      10.000022471187895       1                        0.4526929576323253       1                        0.26179051496449857
0.48178199926616266       0.4075074674065744       0.5551798093125264       9.999996225664123        1                        0.48178199926616283      0.40750746740657456      0.5551798093125266
0.5326175847387565        0.45569499657875145      0.5357387179918037       9.999993964986656        1                        0.5326175847387566       0.4556949965787514       0.5357387179918036
0.2810721257297471        0.4111242896862479       0.8753698891680484       9.999970496313724        1                        0.28107212572974727      0.4111242896862477       0.8753698891680485
0.27491347875918326       0.520129662636548        0.6877712192884026       9.999985682511195        1                        0.2749134787591832       0.5201296626365478       0.6877712192884023
0.331412854941424         0.4507641605090087       0.6878928007315471       9.999985230404006        1                        0.331412854941424        0.45076416050900836      0.6878928007315469
0.2905299086912409        0.416834845695215        0.7294300791518308       10.000072508595244       1                        0.2905299086912408       0.41683484569521495      0.729430079151831
0.2950942162042379        0.44218928279371955      0.7752850326909735       9.999981991658691        1                        0.2950942162042379       0.4421892827937197       0.7752850326909736
0.4106032030451792        0.5246168726675631       0.5516678094235414       10.000030776455825       1                        0.4106032030451791       0.5246168726675631       0.5516678094235415
0.4250978319335475        0.48646332758385813      0.5890494752884049       10.000066960145489       1                        0.4250978319335475       0.4864633275838581       0.5890494752884051
0.3728973435165713        0.5638807062338823       0.582416038860479        9.999990106701063        1                        0.37289734351657144      0.5638807062338824       0.5824160388604791
0.5525604658496953        0.2900534583344571       0.7892508594112825       9.99994997958579         1                        0.5525604658496951       0.290053458334457        0.7892508594112825
0.523691094571155         0.3088422957944622       0.7245393663178247       9.999961439349043        1                        0.5236910945711551       0.30884229579446215      0.7245393663178246
0.40815023838968373       0.32377293810172736      0.7508453049173283       9.999977356934895        1                        0.40815023838968384      0.3237729381017276       0.7508453049173284
0.3558950823387321        0.36582722761921693      0.8341439143772866       10.000034926826695       1                        0.3558950823387319       0.3658272276192171       0.8341439143772863
0.4040475174500831        0.3191154361095393       0.8343819609922032       9.999963810087177        1                        0.4040475174500831       0.31911543610953946      0.8343819609922035
0.452199952561434         0.2724036445998616       0.8346200076071199       10.00000408009652        1                        0.4521999525614343       0.27240364459986144      0.8346200076071201
0.3436539686400781        0.4082956940641128       0.7610183575544169       9.99999165955585         1                        0.3436539686400781       0.408295694064113        0.7610183575544167
0.4956334235155083        0.3337209040872828       0.7844809299567158       9.999982553350977        1                        0.4956334235155085       0.3337209040872828       0.7844809299567158
0.5388686918273738        0.2225631517583621       0.9334395538697897       9.999939196864606        1                        0.5388686918273736       0.2225631517583621       0.9334395538697894
0.5994773863333055        0.17149982135691091      1                        10.000010486890154       1                        0.5994773863333054       0.17149982135691091      1
0.5009170318702545        0.17226452819101837      1                        10.000004388275041       1                        0.5009170318702544       0.17226452819101842      1
0.24921299634819577       0.36016830984863013      1                        10.000008577667197       1                        0.24921299634819585      0.36016830984863013      1
0.5080113155075394        0.32017448874220994      0.8804769650437894       9.999965559335973        1                        0.5080113155075396       0.32017448874220994      0.8804769650437893
0.48892781745723385       0.29733628648222793      0.9169207201477658       10.00002507860806        1                        0.488927817457234        0.2973362864822278       0.9169207201477658
0.5484468785552172        0.2817494651043165       0.9165314364919719       9.999996263716486        1                        0.5484468785552175       0.2817494651043165       0.9165314364919721
0.42940875635925047       0.3129231078601394       0.91731000380356         9.999990924538775        1                        0.42940875635925074      0.31292310786013944      0.9173100038035604
0.45126674610286477       0.2603748316219267       1                        10.000042774499796       1                        0.451266746102865        0.26037483162192665      1
0.3647192986764269        0.2572867042830319       1                        9.999982641658624        1                        0.3647192986764268       0.25728670428303196      1
0.3605780870026809        0.3042702087096452       0.9224765949506695       9.99998241509078         1                        0.3605780870026809       0.30427020870964516      0.9224765949506695
0.3239467407281472        0.33173284036098494      1                        10.000022334069186       1                        0.32394674072814716      0.33173284036098494      1
0.2022084052063497        0.5924057491484569       0.7969041021730605       10.000015129261941       1                        0.2022084052063496       0.5924057491484567       0.7969041021730606
0.21640619285303464       0.5104868678285062       0.7679448869810875       9.999996948965439        1                        0.21640619285303475      0.5104868678285059       0.7679448869810875
0.2595902121160303        0.45925081063857226      0.8336678211474534       9.999986609951012        1                        0.2595902121160305       0.45925081063857226      0.833667821147454
0.29597945133522946       0.5019286262797187       0.7614599932273447       9.99998564685497         1                        0.2959794513352295       0.5019286262797189       0.7614599932273445
0.23125194062570914       0.6399990502017358       0.6098448770257633       10.000007242261873       1                        0.23125194062570917      0.6399990502017361       0.6098448770257634
0.3005624895551384        0.6294038418562651       0.610072042311111        9.999998338101932        1                        0.30056248955513853      0.6294038418562647       0.6100720423111112
0.22854032453614886       0.577295156258915        0.6850415925486144       10.000017365992374       1                        0.22854032453614884      0.5772951562589147       0.6850415925486145
0.3710080289933016        0.4876905165882859       0.6197803050775443       9.999992533089202        1                        0.3710080289933017       0.4876905165882857       0.6197803050775442
0.47918763487379334       0.4852361385794304       0.5583186454992656       9.99997701317692         1                        0.47918763487379357      0.4852361385794306       0.5583186454992659
0.3944721791035847        0.6138974512070922       0.5622611438753917       9.999994007052543        1                        0.39447217910358456      0.6138974512070924       0.5622611438753915
0.3173869342705497        0.5469144221455208       0.6303153111486713       9.999991657877176        1                        0.3173869342705497       0.5469144221455209       0.6303153111486712
0.2898151968540532        0.5846653778726048       0.657024854638286        10.00004379784917        1                        0.2898151968540531       0.5846653778726049       0.6570248546382859
0.3809263623579624        0.5554981452976641       0.6465481769478821       9.9999460534026          1                        0.38092636235796246      0.555498145297664        0.6465481769478821
0.30948104615909683       0.5555622593680508       0.7354984063996994       10.000038712769475       1                        0.30948104615909683      0.5555622593680508       0.7354984063996994
0.2512519245069254        1                        0.45722137401394597      9.999990835446134        1                        0.2512519245069254       1                        0.4572213740139459
0.22500756738384187       0.9105776871274108       0.517790123372006        10.000002094604996       1                        0.22500756738384187      0.9105776871274108       0.5177901233720058
0.16900577201395975       1                        0.5043914416526466       10.000076778672925       1                        0.16900577201395975      1                        0.5043914416526467
0.17320508075688779       0.4999999999999999       1                        9.999977627167384        1                        0.17320508075688773      0.49999999999999994      1
0.252351368829368         0.45609270321914525      1                        10.000018478300088       1                        0.252351368829368        0.4560927032191452       1
0.15853792172027606       0.5658592031232426       0.8793905093114895       10.000036853537798       1                        0.15853792172027606      0.5658592031232424       0.8793905093114892
0.12257023104936002       0.5579296015616212       0.9396952546557448       9.999987736616742        1                        0.12257023104936003      0.5579296015616214       0.9396952546557447
0.20797042716553582       0.5586895595407724       0.9396952546557448       9.999932451004906        1                        0.20797042716553585      0.5586895595407723       0.9396952546557447
0.16270264456637432       0.9016286756185182       0.5643954854704859       10.0000207673442         1                        0.1627026445663743       0.9016286756185182       0.564395485470486
0.17063358245852253       0.8330092390784827       0.5507630069174748       10.000023316211982       1                        0.17063358245852245      0.8330092390784823       0.5507630069174746
0.1309038102125807        0.8421248999356258       0.6238256782151698       9.999982671230534        1                        0.13090381021258068      0.8421248999356262       0.6238256782151695
0.1389293323099299        0.6959142902231757       0.8348094069030301       10.000007941390368       1                        0.1389293323099299       0.6959142902231755       0.8348094069030302
0.0881678657287155        0.6471850556579785       1                        10.000035257963134       1                        0.0881678657287155       0.6471850556579783       1
0.17259893853608305       0.5976927519576501       1                        9.999957485216852        1                        0.17259893853608305      0.5976927519576501       1
0.12158333847229832       0.6597074836987288       0.9278303959507361       9.99997396321942         1                        0.12158333847229838      0.6597074836987286       0.9278303959507357
0.1830602914711081        0.645069257862461        0.8995634635934417       9.999982048851844        1                        0.18306029147110803      0.6450692578624613       0.8995634635934417
0.07328045153626568       0.7955549933074335       0.8925957111098963       10.000024085271566       1                        0.0732804515362657       0.7955549933074336       0.8925957111098963
0                         0.8439978922221444       0.9081483760957388       9.999936805659674        1                        0                        0.8439978922221445       0.9081483760957386
0.11358486191555758       0.7343000963122911       0.7871599970474421       10.000026756580654       1                        0.11358486191555754      0.7343000963122909       0.7871599970474423
0.06461204503030206       0.7845676757203887       0.7965302420874449       10.000007497219165       1                        0.06461204503030206      0.7845676757203889       0.7965302420874453
0.06461204503030206       0.8151218297977865       0.7246672039709021       9.999987509212978        1                        0.06461204503030206      0.815121829797786        0.7246672039709025
0                         0.8421013654935396       0.796093830373879        10.000005130830855       1                        0                        0.8421013654935394       0.796093830373879
0                         0.828188760993545        0.6952483156936965       10.000031086145354       1                        0                        0.8281887609935447       0.6952483156936965
0.0731367035803502        0.865589950286211        0.6688746065472724       10.000000043593015       1                        0.07313670358035024      0.8655899502862107       0.6688746065472723
0                         0.9156538090433078       0.7461533108472876       9.999967393897885        1                        0                        0.9156538090433078       0.7461533108472876
0.14660952173057987       0.9447617727081786       0.627609955134076        10.000011292705977       1                        0.14660952173057987      0.9447617727081784       0.6276099551340761
0.13297923117427077       0.8933262001270119       0.6520501566530063       9.999978637802075        1                        0.1329792311742707       0.893326200127012        0.6520501566530063
0.070072392373439         0.8350436357893405       0.8300463664587769       9.999988985259138        1                        0.070072392373439        0.8350436357893402       0.8300463664587773
0.10558647405141672       0.7658398850565556       0.8367866441057494       10.000006137661433       1                        0.1055864740514167       0.7658398850565556       0.8367866441057498
0.23774679495006118       0.9205505328573097       0.5805622982690355       10.000075202179783       1                        0.23774679495006115      0.9205505328573093       0.5805622982690353
0.19367903759834887       0.9291318459207869       0.6315929003968414       9.999985906174365        1                        0.19367903759834884      0.9291318459207871       0.6315929003968412
0.08812509773366024       0.9359158893925986       0.7012631459133596       9.999972504044239        1                        0.08812509773366026      0.935915889392599        0.7012631459133591
0                         1                        0.7                      10.000010498766402       1                        0                        1                        0.7000000000000001
0.17197492988076307       1                        0.601166184204853        9.999999684638777        1                        0.1719749298807631       1                        0.6011661842048531
0.08660254037844396       1                        0.65                     9.999972532249588        1                        0.08660254037844399      1                        0.6500000000000001
0.1621547348106341        0.9518710805129347       0.6639123050141943       9.999999419311408        1                        0.1621547348106341       0.9518710805129342       0.6639123050141944
0.05541039993592535       0.8886361264871161       0.8715841946996692       10.000038096091249       1                        0.05541039993592535      0.8886361264871161       0.8715841946996689
0.061225622154380724      0.9236697051048217       0.80970835478328         9.999968753359804        1                        0.061225622154380745     0.9236697051048214       0.8097083547832801
0                         0.9256718313367509       0.8457961231987361       9.999984281334426        1                        0                        0.9256718313367506       0.8457961231987364
0                         1                        0.7999999999999999       9.9999726882047          1                        0                        1                        0.7999999999999999
0.08529675548919456       1                        0.7505556038074934       9.999978551032505        1                        0.08529675548919456      1                        0.7505556038074933
0.14656090307253136       0.7471120943927225       0.8770430461240539       9.999999998935966        1                        0.14656090307253142      0.7471120943927225       0.8770430461240543
0.10120106010631555       0.7647267241313285       0.9385039707658331       10.000021781294633       1                        0.10120106010631556      0.7647267241313286       0.938503970765833
0.08795076560252796       0.7432059989558445       1                        9.999994469063918        1                        0.08795076560252799      0.7432059989558445       1
0                         0.8000000000000002       1                        9.999993885977796        1                        0                        0.8000000000000002       1
0.07050615853848831       0.8526397996218303       0.9193848334258222       10.000015633188251       1                        0.07050615853848831      0.8526397996218301       0.9193848334258221
0.04782818768336729       0.9047735394882432       0.9482982340041324       10.000018153765389       1                        0.04782818768336728      0.9047735394882431       0.9482982340041324
0                         0.9340435951997574       0.9240295681613634       10.000026948442873       1                        0                        0.9340435951997571       0.9240295681613635
0                         0.9                      0.9999999999999999       9.999860089606488        1                        0                        0.9                      0.9999999999999999
0.5598480494781781        0.8608272232219336       0.29511577549511         10.000000058810667       1                        0.5598480494781785       0.8608272232219334       0.29511577549511
0.5110020079971855        0.8968462519549103       0.32129083330924957      10.000058555514226       1                        0.5110020079971853       0.8968462519549103       0.3212908333092495
0.5005979848740381        0.7991275532906164       0.2913867986446351       10.000030971697992       1                        0.5005979848740382       0.7991275532906165       0.29138679864463507
0.5712832342081612        0.7766512433616026       0.29553638929695125      10.000042666484232       1                        0.5712832342081614       0.7766512433616023       0.2955363892969513
0.5685376528914894        0.7183497830195541       0.3627520537260605       10.000049612321497       1                        0.5685376528914894       0.7183497830195544       0.3627520537260605
0.3649340380623842        0.879720359765003        0.3814945521868929       10.000023515983662       1                        0.3649340380623841       0.8797203597650026       0.381494552186893
0.3456650327183755        0.8081157827034506       0.41260145653076313      9.999998409152578        1                        0.3456650327183757       0.8081157827034507       0.4126014565307632
0.3899456608621876        0.7061770375620918       0.4440313749189682       10.000044480261279       1                        0.3899456608621874       0.7061770375620919       0.4440313749189682
0.3627572520744002        0.7571627386469104       0.4740434879450759       10.000028329726845       1                        0.3627572520744          0.7571627386469102       0.47404348794507617
0.3951149094320508        0.7700606269799521       0.4190402214156727       10.00003116981254        1                        0.3951149094320509       0.7700606269799519       0.4190402214156725
0.4549705667095988        0.6774118608417032       0.454783273055899        9.999992184500487        1                        0.45497056670959907      0.6774118608417035       0.45478327305589883
0.4762666333873446        0.7097968811796109       0.3841304028571803       10.000019847692856       1                        0.4762666333873447       0.7097968811796105       0.38413040285718014
0.4537810794185011        0.827691689729677        0.3450026002629986       10.000028443714294       1                        0.45378107941850127      0.8276916897296767       0.3450026002629988
0.4511064329608016        0.7768496936128194       0.392837240851771        10.000017654166708       1                        0.45110643296080144      0.7768496936128192       0.39283724085177085
0.42160530520320344       0.8230857779116181       0.39243052914652665      10.00002830757287        1                        0.4216053052032035       0.8230857779116183       0.39243052914652665
0.5070979564895525        0.7836387602456867       0.3666342602878693       10.000061004370007       1                        0.5070979564895525       0.7836387602456867       0.36663426028786916
0.2919531492706878        0.9190147815258003       0.41647063276772117      9.999979161141626        1                        0.2919531492706878       0.9190147815257996       0.41647063276772117
0.3895971866359411        0.6835407906152162       0.547790955547951        10.000028039799815       1                        0.3895971866359409       0.6835407906152166       0.547790955547951
0.8666503591218588        0.8516555824052747       0.11191073708175406      10.000062145142808       1                        0.8666503591218592       0.8516555824052751       0.11191073708175413
0.8059470672196605        0.9258277912026374       0.10030169481449283      10.000071678553411       1                        0.80594706721966         0.9258277912026368       0.10030169481449289
0.7721506038380501        0.9264453662172712       0.1509826331765868       10.000051373485062       1                        0.7721506038380498       0.9264453662172715       0.15098263317658675
0.8744370262779674        0.9439212876416596       0.07388300542472238      10.000043989203686       1                        0.8744370262779672       0.9439212876416598       0.07388300542472238
0.9                       0.9999999999999999       0                        10.000103016784964       1                        0.9                      0.9999999999999999       0
0.8485270753951265        1                        0.09181064230856777      10.000056915247786       1                        0.8485270753951266       1                        0.09181064230856775
0.9363878272132373        1                        0.07138314472430864      10.000075668419784       1                        0.9363878272132375       1                        0.07138314472430864
1                         1                        0                        10.000065837333441       1                        1                        1                        0
0.9305657533433056        0.8630134672411907       0.10567158829996362      10.000059383743404       1                        0.9305657533433056       0.8630134672411903       0.10567158829996365
1                         0.924561869770983        0.06549901099201719      10.000117862841178       1                        1                        0.924561869770983        0.06549901099201717
1                         0.8491852823467392       0.07298525171921214      10.00005530230159        1                        1                        0.8491852823467392       0.07298525171921212
0.9278063271256819        0.9251948304868102       0.11253970812484285      10.000110747186712       1                        0.927806327125682        0.9251948304868097       0.11253970812484285
0.8262575761371006        0.5453611413906493       0.2729110580107014       10.000019976413645       1                        0.8262575761370998       0.5453611413906496       0.2729110580107014
0.6162240769259498        0.658397042078006        0.3441170478146206       10.000059931717928       1                        0.6162240769259495       0.658397042078006        0.34411704781462055
0.6529052172222238        0.7217643138965154       0.3163935213356189       10.00003770054152        1                        0.6529052172222234       0.7217643138965157       0.3163935213356189
0.6911148964852188        0.46366422932786244      0.3727784867561429       10.000041801895437       1                        0.691114896485219        0.4636642293278625       0.372778486756143
0.6989781668064766        0.40988301124547605      0.43080870932049914      9.999950832534479        1                        0.6989781668064766       0.40988301124547616      0.4308087093204992
0.6092288408556091        0.6002576863097039       0.3388412320786887       10.000076398235652       1                        0.6092288408556094       0.6002576863097037       0.33884123207868894
0.6843134270983124        0.6130502554030114       0.3316241400514144       10.00005710579895        1                        0.6843134270983124       0.6130502554030116       0.33162414005141444
0.7182188070475501        0.5143358320446049       0.3378446047607291       10.000033804164758       1                        0.7182188070475501       0.5143358320446049       0.3378446047607291
0.6473069399400047        0.4293831283409539       0.44386530031048416      9.999983692390682        1                        0.6473069399400049       0.42938312834095366      0.4438653003104841
0.4460489824437643        0.6236472652614976       0.5155169465756037       10.000021421097635       1                        0.4460489824437644       0.6236472652614976       0.5155169465756037
0.47659327048142397       0.5629648097522864       0.5614574816860048       10.00001768565781        1                        0.4765932704814239       0.5629648097522862       0.5614574816860051
0.5200480354519541        0.6621502687952066       0.4298694767701894       10.000058102071236       1                        0.5200480354519539       0.6621502687952067       0.42986947677018955
0.5215222598236741        0.5949374663417503       0.47904854417969234      9.999994820599547        1                        0.5215222598236742       0.5949374663417505       0.47904854417969217
0.5851255041943094        0.6468886767487099       0.4049556804844798       10.000091717862544       1                        0.5851255041943092       0.6468886767487096       0.40495568048447983
0.5455915337527912        0.5963801170036561       0.41213676289140266      9.999983916566222        1                        0.5455915337527912       0.5963801170036563       0.4121367628914026
0.6477942138584128        0.5025048201462674       0.42098593029613085      10.000006611377446       1                        0.6477942138584128       0.5025048201462674       0.42098593029613096
0.6821483171613902        0.5330923885800904       0.380012317403843        10.00001600150077        1                        0.6821483171613902       0.5330923885800906       0.3800123174038428
0.6296764440526627        0.5827574738764572       0.4208592462697085       10.000055380438928       1                        0.6296764440526629       0.5827574738764572       0.42085924626970866
0.8179816074120199        0.492709897925487        0.3580251479462349       10.000013853443267       1                        0.8179816074120194       0.49270989792548686      0.358025147946235
0.7549831827178533        0.4473680762390903       0.4011822541709332       10.000041612630927       1                        0.7549831827178531       0.4473680762390904       0.4011822541709334
0.7543939608563689        0.5070546251646714       0.3985584567625675       10.000021948303539       1                        0.7543939608563689       0.5070546251646714       0.3985584567625676
0.8693196690061701        0.6121432158355758       0.2962403022414403       10.000006745542853       1                        0.8693196690061703       0.6121432158355762       0.29624030224144016
0.8349745129226547        0.6991753297023662       0.19439868245322728      10.000032760515525       1                        0.8349745129226551       0.6991753297023667       0.1943986824532272
0.8236613248287951        0.6585642700899          0.2648853405197415       10.000045919340103       1                        0.8236613248287948       0.6585642700899004       0.26488534051974155
0.8749762630531           0.6814378423092172       0.25752633177638196      10.000006237274103       1                        0.8749762630530997       0.681437842309217        0.2575263317763819
0.7598918478466086        0.7323971141761686       0.1997916326142598       10.00004209615939        1                        0.7598918478466088       0.7323971141761686       0.1997916326142599
0.7067783073654418        0.7884682036299497       0.19468505313516443      10.000044770045777       1                        0.7067783073654416       0.7884682036299501       0.19468505313516446
0.764180100936967         0.6770352702720611       0.2637223852867336       10.000002124676962       1                        0.7641801009369672       0.6770352702720609       0.2637223852867336
0.704808026779173         0.6605715826139742       0.3259542310289813       10.00003742170283        1                        0.7048080267791726       0.6605715826139741       0.3259542310289812
0.7046988770451388        0.6955062704542224       0.2625594300537256       10.000041623155305       1                        0.7046988770451391       0.6955062704542223       0.26255943005372556
0.6949164023851678        0.7609689479180508       0.2501978707144247       10.000065326783698       1                        0.6949164023851678       0.7609689479180513       0.25019787071442473
0.82270343194074          0.8613919635459794       0.1484772643365865       10.000040022554584       1                        0.8227034319407401       0.8613919635459798       0.14847726433658656
0.7765295926294526        0.8841866606505975       0.18187746528917417      10.000025787600164       1                        0.7765295926294529       0.8841866606505971       0.1818774652891742
0.7200192092900352        0.844015944574978        0.21437351071194594      10.000016968433302       1                        0.7200192092900349       0.8440159445749775       0.21437351071194585
0.7804521855941413        0.8143244501644          0.20957900793297873      10.000044145207069       1                        0.7804521855941414       0.8143244501643996       0.2095790079329788
0.7843345260495403        0.5397095752489136       0.3495491019454892       9.999983452538448        1                        0.7843345260495408       0.5397095752489136       0.3495491019454892
0.7593980133410158        0.6258428244963189       0.32440704802414005      9.999999158162462        1                        0.759398013341016        0.6258428244963189       0.32440704802414005
0.8210560712292767        0.6201173305904821       0.3326804190695165       10.000000128419689       1                        0.8210560712292769       0.6201173305904819       0.3326804190695166
0.76677016175663          0.6746013337918394       0.3604997722283926       10.000054249735618       1                        0.7667701617566302       0.6746013337918394       0.36049977222839247
0.6443627663683599        0.6452824790501542       0.39815888266987337      10.000047793479471       1                        0.6443627663683599       0.6452824790501542       0.3981588826698735
0.8471700450641175        0.8023748981868245       0.172646309084343        10.000089614455122       1                        0.8471700450641179       0.8023748981868243       0.172646309084343
0.9333251795609294        0.847417550923703        0.17226021862463517      10.000088919994337       1                        0.933325179560929        0.8474175509237026       0.17226021862463525
0.9231438505082572        0.7454241655265668       0.19178800011001024      10.000069050030902       1                        0.9231438505082572       0.7454241655265672       0.1917880001100103
0.8805747281776726        0.7363961777242379       0.2582696057304918       10.000054401232871       1                        0.8805747281776722       0.7363961777242379       0.2582696057304918
1                         0.799620492090562        0.16404267917767626      10.000081067409793       1                        1                        0.7996204920905619       0.1640426791776763
1                         0.6987973864162064       0.17276348537716688      10.000075181419586       1                        1                        0.6987973864162064       0.17276348537716688
0.934659834503085         0.6279070867405684       0.27954490179800645      10.000086426325712       1                        0.9346598345030848       0.6279070867405685       0.27954490179800645
0.93748813152655          0.7162498920237593       0.2585951538048447       10.000043204923454       1                        0.9374881315265499       0.7162498920237593       0.25859515380484477
1                         0.5506062585411525       0.2598656715205459       10.000052447645425       1                        1                        0.5506062585411524       0.2598656715205459
1                         0.6436709576455608       0.2628495013545725       10.000040938266883       1                        1                        0.643670957645561        0.2628495013545726
0.8709444637359708        0.44643688471986875      0.34404873741599806      10.000018569436277       1                        0.8709444637359705       0.4464368847198691       0.3440487374159981
0.9354722318679853        0.4055780916981479       0.30066772084951504      10.000010818453434       1                        0.9354722318679858       0.4055780916981479       0.30066772084951504
0.9456937815375921        0.493978571656438        0.3092574176768383       10.000055769714038       1                        0.9456937815375921       0.493978571656438        0.30925741767683834
0.9252251225257653        0.5578447884971874       0.31055963532539765      10.00004330121155        1                        0.9252251225257655       0.5578447884971873       0.31055963532539743
0.8741082761461183        0.505987616247512        0.34257484847418707      10.00004083789679        1                        0.8741082761461185       0.5059876162475121       0.34257484847418695
0.9135974015709917        0.3495879711038542       0.39237739339932287      10.000017625885993       1                        0.9135974015709918       0.3495879711038542       0.392377393399323
1                         0.32852028247923615      0.41037015823317974      10.000003266126486       1                        1                        0.32852028247923615      0.41037015823317974
1                         0.40661756015706696      0.35344257112041705      10.000020901873466       1                        1                        0.4066175601570671       0.35344257112041705
1                         0.49936292379660707      0.335467678752087        9.999995960058936        1                        1                        0.4993629237966069       0.335467678752087
0.829725090130441         0.20867900058696187      0.6329043440243562       10.000010720544394       1                        0.8297250901304413       0.20867900058696176      0.632904344024356
0.8369790552537348        0.17815126191131728      0.6959438128309524       9.999973785530957        1                        0.8369790552537352       0.17815126191131728      0.6959438128309524
0.7686959627074427        0.2528030020523168       0.624702613245108        9.999950649305791        1                        0.7686959627074427       0.2528030020523167       0.6247026132451078
0.8201280410066999        0.30469141452129506      0.5781331799204072       9.999998881335111        1                        0.8201280410067004       0.30469141452129495      0.5781331799204069
0.8309438493165671        0.44508165485357604      0.41489483413125916      10.000013442449703       1                        0.8309438493165674       0.4450816548535759       0.41489483413125916
0.9150148570433703        0.4156392296828438       0.3894871229366949       9.999993369491802        1                        0.9150148570433706       0.4156392296828439       0.38948712293669474
0.7709322110793799        0.41625769093424686      0.46684892047203114      10.000051105229904       1                        0.7709322110793799       0.41625769093424675      0.46684892047203114
0.7706685642870102        0.40744064833175797      0.5297682047556618       10.000029417241041       1                        0.7706685642870105       0.40744064833175814      0.5297682047556619
0.8336369552218192        0.3693741300624503       0.46152691219106334      9.99999234703456         1                        0.8336369552218198       0.3693741300624503       0.4615269121910633
0.8914281929271074        0.2971409175861387       0.48454525022536976      10.000044128975217       1                        0.8914281929271075       0.29714091758613864      0.48454525022536993
0.8378943563526425        0.31624086778632693      0.4905028087759258       9.999978787874204        1                        0.8378943563526423       0.31624086778632693      0.49050280877592567
0.8248775313780938        0.3667531868709691       0.554877809364026        9.99999384385305         1                        0.8248775313780938       0.36675318687096925      0.554877809364026
0.8859121598260657        0.4028691032224876       0.4620105500573864       9.999934579475154        1                        0.8859121598260661       0.4028691032224874       0.46201055005738634
0.8971625047068379        0.3134158672113153       0.5435607355270662       9.999997434615997        1                        0.8971625047068379       0.31341586721131526      0.5435607355270662
0.9457140964635538        0.35002111902089394      0.4672703272862454       9.999980292238858        1                        0.9457140964635541       0.3500211190208942       0.46727032728624535
0.9450847804784446        0.32005646356351586      0.5221705010179745       10.0000078594536         1                        0.9450847804784445       0.3200564635635158       0.5221705010179746
1                         0.25740293261079555      0.5515199159583023       10.00002542342472        1                        1                        0.25740293261079555      0.5515199159583022
1                         0.3366794493152909       0.5036443432214064       10.000079495188787       1                        1                        0.3366794493152909       0.5036443432214064
0.9028968164865683        0.3296908168364919       0.6025762208287627       10.000016060269033       1                        0.9028968164865677       0.329690816836492        0.6025762208287625
0.8738659167630177        0.2686960740579279       0.6318660906425533       9.999995271316562        1                        0.8738659167630172       0.268696074057928        0.6318660906425534
0.8776125269641896        0.2360034774623903       0.68513685416326         9.999973555466921        1                        0.8776125269641892       0.2360034774623903       0.6851368541632596
0.9444554644933354        0.29009180810613777      0.5770706747497035       9.999971409186175        1                        0.9444554644933353       0.2900918081061378       0.5770706747497037
0.9369329583815089        0.26291886281336374      0.6358162806796314       10.000012385797577       1                        0.9369329583815084       0.2629188628133638       0.6358162806796313
0.790470291327767         0.0769704980457155       0.8912104852931843       9.999967601353852        1                        0.7904702913277668       0.07697049804571551      0.891210485293184
0.846078399916552         0                        0.9263790257532827       9.999929250237784        1                        0.8460783999165519       0                        0.9263790257532828
0.8198277868372531        0.07497787488246378      0.9456052426465922       9.999945731709342        1                        0.8198277868372531       0.07497787488246381      0.9456052426465926
0.9175886015537345        0.12094588084697946      0.8054114367183193       9.99999947821531         1                        0.9175886015537348       0.12094588084697948      0.8054114367183194
0.8540294464407507        0.09895818944634752      0.8483109610057518       10.000018683577174       1                        0.8540294464407512       0.09895818944634754      0.8483109610057513
0.9121511044776962        0.06047294042348973      0.8248958020758839       9.99999043376342         1                        0.9121511044776961       0.06047294042348974      0.8248958020758842
0.9587943007768672        0.0563934500891551       0.9010938889319289       9.999985137845412        1                        0.9587943007768673       0.0563934500891551       0.9010938889319287
0.9241325783204828        0                        0.9343636218964727       9.999957583687133        1                        0.9241325783204831       0                        0.9343636218964728
1                         0                        0.8999999999999999       9.999875686985796        1                        1                        0                        0.9
0.9370851098325855        0.16277972980627756      0.6865251252797073       10.00002743995995        1                        0.937085109832586        0.1627797298062776       0.6865251252797075
0.92733685569316          0.1418628053266285       0.7459682809990132       10.000034731494344       1                        0.9273368556931597       0.14186280532662854      0.7459682809990135
1                         0.1638977160844587       0.6921692901834172       9.999963046503588        1                        1                        0.16389771608445874      0.6921692901834171
0.9406795685826806        0.23022626621782616      0.689087044200338        10.000026136545156       1                        0.9406795685826805       0.23022626621782613      0.6890870442003382
1                         0.2571416515687996       0.6397664707167094       10.00000045779593        1                        1                        0.2571416515687996       0.6397664707167097
1                         0.1597673195410748       0.7669004547418442       9.99996210506014         1                        1                        0.15976731954107476      0.766900454741844
1                         0.09319982017916231      0.8481699569425747       9.9999473893675          1                        1                        0.09319982017916234      0.8481699569425748
1                         0.07163280426518924      0.9367586812469219       9.999917866955242        1                        1                        0.07163280426518924      0.9367586812469217
1                         0                        1                        9.999901326774737        1                        1                        0                        1
0.8831569105237935        0.05673156195266078      0.9340860295684349       9.999954782971798        1                        0.8831569105237936       0.056731561952660776     0.9340860295684347
0.8999999999999999        0                        1                        9.999962638424044        1                        0.9                      0                        1
0.8491852823467392        0.07298525171921214      1                        9.999977964669066        1                        0.8491852823467392       0.07298525171921212      1
0.924561869770983         0.06549901099201719      1                        9.99992825948906         1                        0.924561869770983        0.06549901099201717      1
0.26054604772903495       0.5530930920504286       0.835027185723142        10.000002693896613       1                        0.2605460477290349       0.5530930920504283       0.835027185723142
0.4017892115357237        0.4220805092415303       0.6981713799498674       9.999872415227461        1                        0.4017892115357236       0.4220805092415301       0.6981713799498678
0.302554039343464         0.36299776873392353      0.9170719571886433       10.00001010550062        1                        0.3025540393434641       0.36299776873392353      0.9170719571886431
0.35728122186528877       0.35507318281213507      0.951964928796043        9.999997939735309        1                        0.35728122186528893      0.3550731828121351       0.9519649287960432
0.3906157030024304        0.37841352526328526      0.903929857592086        10.000048033079217       1                        0.3906157030024302       0.37841352526328537      0.903929857592086
0.2584965723634129        0.5053853632984372       0.9168339105737267       10.000005739112963       1                        0.2584965723634128       0.5053853632984372       0.9168339105737263
0.28052530585343843       0.4341915660161804       0.916952933881185        9.99994950427814         1                        0.28052530585343843      0.4341915660161804       0.9169529338811845
0.47216556813002336       0.39339685797405194      0.7084499591681876       10.000091382272922       1                        0.47216556813002336      0.39339685797405194      0.708449959168188
0.4513779579420893        0.4381139571240229       0.6331674168568757       10.000015149916258       1                        0.4513779579420892       0.43811395712402296      0.6331674168568759
0.559736254035014         0.4113899931575029       0.5761576297393359       10.000017875787988       1                        0.5597362540350143       0.41138999315750274      0.576157629739336
0.5197255181903868        0.40477682220814043      0.6627342899703769       10.000014822391952       1                        0.5197255181903871       0.40477682220814043      0.6627342899703769
0.5924176128534157        0.5535301536834839       0.47625477322677         10.000025903920122       1                        0.5924176128534155       0.5535301536834839       0.47625477322677023
0.6047220734136962        0.4658984399718763       0.49402144245874163      10.000090339210383       1                        0.6047220734136965       0.46589843997187635      0.49402144245874163
0.5338723356906897        0.5546178993663888       0.5238042506022045       9.99997614676409         1                        0.5338723356906899       0.5546178993663885       0.5238042506022041
0.5462224115577055        0.5142983323910274       0.5685599570247165       10.000026832506869       1                        0.5462224115577055       0.5142983323910273       0.5685599570247164
0.3477383091428442        0.426099818365272        0.8257840344675145       10.000032960747477       1                        0.34773830914284426      0.4260998183652721       0.8257840344675141
0.35182264964561033       0.44390394266643113      0.8905497113806121       9.999979562038122        1                        0.35182264964561044      0.443903942666431        0.8905497113806117
0.7627182743307227        0.15414309239569782      0.735233748961588        9.999999087975477        1                        0.7627182743307229       0.15414309239569776      0.7352337489615879
0.6920675037501918        0.19262834141855556      0.7951660118508339       9.999984334705971        1                        0.6920675037501917       0.19262834141855564      0.795166011850834
0.6364387081476824        0.20256043806892615      0.8371926185666431       9.99998255470472         1                        0.6364387081476827       0.20256043806892612      0.8371926185666431
0.6343713949356057        0.18081692555372145      0.8854638047245471       9.999951937710195        1                        0.6343713949356057       0.18081692555372142      0.8854638047245476
0.7601137475262971        0.12632925101874623      0.8671766498860107       9.999959313142337        1                        0.7601137475262972       0.12632925101874626      0.867176649886011
0.729757203724827         0.17568800399177695      0.8431428144788373       10.000020914281288       1                        0.7297572037248268       0.17568800399177686      0.8431428144788372
0.690665665544631         0.17195428659372322      0.8823705839834797       9.999958862526011        1                        0.6906656655446314       0.17195428659372325      0.8823705839834799
0.7476223449437521        0.14215254835990845      0.9305003491916982       9.999916805278911        1                        0.7476223449437522       0.14215254835990845      0.9305003491916989
0.8813591371653613        0.20331088086685273      0.7384076176839666       9.999993410405695        1                        0.8813591371653614       0.20331088086685276      0.7384076176839663
0.9415121710829015        0.17528599206531856      0.790505782796591        10.000009384978041       1                        0.9415121710829019       0.1752859920653185       0.7905057827965911
0.8442884309060562        0.13751922458330526      0.805670228141754        9.999940569025595        1                        0.8442884309060557       0.13751922458330534      0.8056702281417537
0.8226246734090366        0.217212235654133        0.7818462741291224       10.000005573426659       1                        0.8226246734090366       0.217212235654133        0.7818462741291227
0.7709882602583779        0.15409256831963106      0.8059290195651889       9.99996006671447         1                        0.7709882602583776       0.1540925683196311       0.8059290195651893
0.6144127957012537        0.2607797766445877       0.7913932685175085       9.999963089590699        1                        0.6144127957012538       0.26077977664458785      0.7913932685175087
0.6656748660851283        0.25405127323986715      0.8108988829375132       9.999981554665935        1                        0.6656748660851283       0.25405127323986704      0.8108988829375133
0.7671251479679284        0.23277271712898806      0.7127694803985645       9.999927969575282        1                        0.7671251479679281       0.23277271712898798      0.7127694803985645
0.6945596400840124        0.2546880603369482       0.7387672098898762       9.999984189332121        1                        0.6945596400840124       0.2546880603369483       0.7387672098898759
0.843636227242695         0.3600737150416113       0.6235728945123798       9.999989191226877        1                        0.8436362272426954       0.36007371504161134      0.6235728945123798
0.7095962004648361        0.2960537954357457       0.678350724864777        9.999945234707988        1                        0.7095962004648358       0.2960537954357456       0.6783507248647768
0.7775390939879363        0.3616374482733809       0.5892122883088954       10.000033811755536       1                        0.7775390939879364       0.361637448273381        0.5892122883088952
0.6822575836077219        0.30786532126369476      0.6252002288221253       9.999953884609711        1                        0.6822575836077219       0.3078653212636946       0.6252002288221253
0.6969533429584355        0.42281667799387207      0.4981762121286856       10.000022583752814       1                        0.6969533429584353       0.4228166779938719       0.49817621212868535
0.7327317537024858        0.3771303446543151       0.5616478529892527       9.999991144097423        1                        0.732731753702486        0.3771303446543151       0.5616478529892528
0.6712963199446144        0.37666022975020624      0.5445777134854649       9.999991490678148        1                        0.6712963199446146       0.3766602297502064       0.5445777134854649
0.6998101214086031        0.35857506760199565      0.6046671720066623       10.000016244846694       1                        0.6998101214086033       0.3585750676019955       0.6046671720066623
0.6644722870392109        0.3601309434516402       0.6509832610318933       9.999976580906791        1                        0.6644722870392106       0.3601309434516402       0.6509832610318932
0.6422767540931159        0.4600103779764153       0.5616894910178163       10.000029819179398       1                        0.642276754093116        0.46001037797641514      0.5616894910178162
0.6121042705371125        0.38576046830457156      0.6135704453856147       9.999956874788761        1                        0.6121042705371128       0.3857604683045715       0.6135704453856144
0.7621339697385564        0.3270152323014748       0.6602517468789544       9.999998190567625        1                        0.7621339697385564       0.32701523230147506      0.6602517468789543
0.6926032161979546        0.3082861847913956       0.7829529866677621       9.999942653200376        1                        0.6926032161979543       0.3082861847913954       0.7829529866677624
0.7666713109005889        0.2819585945234026       0.7906140260065432       9.999995892284861        1                        0.766671310900589        0.2819585945234025       0.7906140260065428
0.5727540624780306        0.3696713185685974       0.7004031023106797       9.999979559768997        1                        0.5727540624780311       0.36967131856859753      0.7004031023106801
0.5935834290896422        0.31522554760659255      0.745898185414094        10.000004033044119       1                        0.5935834290896426       0.31522554760659266      0.7458981854140939
0.6345561941429655        0.3786340764065498       0.7341189872803189       9.999981502843632        1                        0.6345561941429653       0.37863407640654967      0.7341189872803187
0.7020043031457157        0.3557188375059709       0.7450310543595635       9.999968731385602        1                        0.7020043031457157       0.3557188375059709       0.7450310543595635
0.799620492090562         0.16404267917767626      1                        9.999920325191992        1                        0.7996204920905617       0.16404267917767626      1
0.6987973864162064        0.17276348537716701      1                        9.99992012497509         1                        0.6987973864162064       0.17276348537716704      1
0.6972488438616434        0.20664416023072413      0.9457382466669405       9.99993295911027         1                        0.6972488438616437       0.2066441602307242       0.9457382466669407
0.611093826870884         0.22878720776884048      0.933762908125301        9.999989834607943        1                        0.6110938268708836       0.22878720776884057      0.9337629081253015
0.5814298371282355        0.2712646208744521       0.8539623525047402       9.99999490011325         1                        0.5814298371282353       0.271264620874452        0.8539623525047406
0.5575220518642726        0.35021378274933573      0.8315057383607675       9.999995569342898        1                        0.5575220518642728       0.35021378274933573      0.8315057383607677
0.6250263348179573        0.3199755309544434       0.7976255566690835       10.000006064120594       1                        0.625026334817957        0.3199755309544434       0.7976255566690837
0.6177098133253025        0.2756300053478578       0.8877595433138892       9.999982589234559        1                        0.6177098133253023       0.2756300053478578       0.8877595433138894
0.7383541404564395        0.9270629412319051       0.2016635715386808       10.000043577939849       1                        0.73835414045644         0.9270629412319057       0.20166357153868086
0.6917210980901104        1                        0.16381331649660014      10.000054137035145       1                        0.6917210980901103       1                        0.1638133164966002
0.7704790656230136        1                        0.16003323731621122      10.000061417267984       1                        0.7704790656230138       1                        0.16003323731621127
0.6827768064455499        0.9299267809609909       0.2457831583875138       10.000055388630956       1                        0.6827768064455495       0.9299267809609905       0.24578315838751383
0.6271994724346602        0.9327906206900767       0.28990274523634685      10.000023067485223       1                        0.6271994724346599       0.9327906206900768       0.2899027452363469
0.5751785870821956        0.9372445801740141       0.3287674817141885       9.999989810071686        1                        0.5751785870821956       0.9372445801740138       0.3287674817141885
0.5515758699443932        1                        0.26112244234557663      10.000005277395491       1                        0.5515758699443933       1                        0.2611224423455766
0.63833611559595          1                        0.2588700041132824       10.000011228073113       1                        0.6383361155959502       1                        0.2588700041132825
0.7067377003363527        0.8339060066861457       0.27791079897959586      10.000058906554326       1                        0.7067377003363526       0.8339060066861457       0.27791079897959575
0.6521930832485626        0.7830575932319788       0.3072780519313852       10.00003005618957        1                        0.6521930832485624       0.7830575932319787       0.30727805193138535
0.7023441624574878        0.755399293686046        0.33744535500503675      10.000072097757263       1                        0.7023441624574877       0.7553992936860463       0.33744535500503675
0.6405186782892448        0.7377380639675982       0.3781507620569182       10.000059234538409       1                        0.640518678289245        0.737738063967598        0.37815076205691844
0.6160628292733706        0.8655812413801532       0.32093548635941127      10.000034878323403       1                        0.6160628292733709       0.8655812413801528       0.32093548635941127
0.23240586436682836       0.8400772314936131       0.5477622074707214       10.000014155860631       1                        0.2324058643668285       0.8400772314936128       0.5477622074707216
0.27308812916934927       0.8693172022245562       0.46335834260062475      10.000000846287417       1                        0.2730881291693494       0.8693172022245563       0.46335834260062475
0.26914966843214827       0.7819059660388126       0.5136245988623412       9.999963634895707        1                        0.2691496684321483       0.781905966038813        0.5136245988623412
0.2826824122184243        0.8140384522328808       0.45989364525409737      9.999975609466468        1                        0.2826824122184242       0.8140384522328808       0.4598936452540974
0.282671831131931         0.9200386157468066       0.525898889779331        10.000019085422148       1                        0.282671831131931        0.9200386157468067       0.525898889779331
0.33390791852107604       0.8380295630516005       0.47169873672627294      10.000000903939478       1                        0.33390791852107604      0.8380295630516003       0.4716987367262729
0.40053121919080625       0.7204682322358658       0.5026724611456478       10.000040757817002       1                        0.40053121919080625      0.720468232235866        0.5026724611456479
0.36531444536950386       0.8150920235185961       0.5186658585115849       10.000035724772815       1                        0.36531444536950375      0.8150920235185963       0.5186658585115849
0.16121764151716758       0.6980541043924661       0.6479557734937214       9.99998496087318         1                        0.16121764151716764      0.6980541043924656       0.6479557734937214
0.13717884886306334       0.7942025040613222       0.660397632837803        10.000027900760514       1                        0.1371788488630634       0.7942025040613222       0.6603976328378031
0.19373515648525358       0.778698556893654        0.6129979080687659       10.000015679257393       1                        0.19373515648525352      0.7786985568936537       0.6129979080687655
0.1436298881619076        0.847614976681168        0.6937903716159757       9.99999541788861         1                        0.14362988816190767      0.847614976681168        0.6937903716159755
0.13709782682498503       0.740874025095653        0.7224299876642664       10.000042375837246       1                        0.13709782682498506      0.7408740250956533       0.7224299876642667
0.24453724446991792       0.6304310320261933       0.8712965312361475       10.000024144358353       1                        0.24453724446991804      0.6304310320261931       0.8712965312361475
0.2194678121812617        0.6390406400700981       0.6717235413354287       9.999967161331545        1                        0.21946781218126168      0.639040640070098        0.6717235413354286
0.20323314288916067       0.6162596135244526       0.7560007397477682       9.999957662016921        1                        0.2032331428891606       0.6162596135244525       0.7560007397477685
0.18289792730038082       0.6860052809950187       0.7315437634960135       10.000037832486717       1                        0.1828979273003809       0.6860052809950189       0.7315437634960135
0.33151125659940484       0.7543381591315946       0.5526673639294996       10.000015036677087       1                        0.3315112565994048       0.7543381591315945       0.5526673639294996
0.25006136315487426       0.8079434721664274       0.5876124386497635       9.999937090784531        1                        0.2500613631548741       0.8079434721664274       0.5876124386497635
0.22150285736920544       0.7097900447697059       0.6787680111872577       10.00004883399648        1                        0.2215028573692054       0.709790044769706        0.6787680111872576
0.36602837855769604       0.6263312671868161       0.6436858252437336       9.999992401957334        1                        0.366028378557696        0.6263312671868159       0.6436858252437336
0.26010778743803004       0.733574808544393        0.625992258878502        9.999997405453966        1                        0.26010778743803004      0.733574808544393        0.6259922588785023
0.35113039475742974       0.6971643890759681       0.6408234735395851       10.000023375268372       1                        0.35113039475742974      0.6971643890759682       0.6408234735395852
0.20457821308359414       0.6739564575975713       0.8151317534983057       10.000049710247637       1                        0.20457821308359406      0.6739564575975713       0.8151317534983062
0.16625808260065808       0.7280871210913111       0.7911962171303664       10.000097617140312       1                        0.166258082600658        0.7280871210913112       0.7911962171303664
0.3415606534675188        0.8978034232687353       0.46957452881533934      10.000008992001435       1                        0.3415606534675187       0.897803423268735        0.4695745288153395
0.43303734591856324       0.9145960708028715       0.3373600237209734       10.000010798184885       1                        0.4330373459185635       0.9145960708028722       0.3373600237209734
0.4627655735532459        0.9138458448648386       0.3781625189458263       10.000011272022041       1                        0.4627655735532458       0.9138458448648382       0.37816251894582636
0.3976721637749436        0.9347826891251172       0.4134341558025868       10.00002490916677        1                        0.3976721637749437       0.9347826891251177       0.41343415580258674
0.4057626243493932        1                        0.3537572020316273       10.000069568383589       1                        0.40576262434939303      1                        0.3537572020316272
0.32742305718296494       1                        0.41127848832925923      9.999987982573224        1                        0.327423057182965        1                        0.4112784883292591
0.523157701729731         0.9416985396579516       0.36763221819203024      10.000008198423277       1                        0.523157701729731        0.9416985396579516       0.36763221819203024
0.5028016337568216        1                        0.33790815285686593      10.000049652350985       1                        0.5028016337568217       1                        0.3379081528568658
0.5092427069840016        0.47239286703678623      0.6338874405633562       9.999982331216863        1                        0.509242706984002        0.4723928670367864       0.6338874405633562
0.3303407360318935        0.49203046361875546      0.8488476433600172       10.000029246399075       1                        0.3303407360318935       0.4920304636187555       0.8488476433600171
0.3563665692235367        0.5103236979336817       0.7177763519268415       9.999970649516776        1                        0.35636656922353693      0.5103236979336819       0.7177763519268415
0.351580827492543         0.4748541983071978       0.7662594416925826       9.999979443167922        1                        0.3515808274925431       0.4748541983071976       0.7662594416925826
0.4396098657558641        0.48705534152870017      0.7035651947076493       10.000037746560372       1                        0.4396098657558642       0.48705534152870017      0.7035651947076499
0.4720375278618716        0.5263309127227234       0.6360714992574782       10.000003559140316       1                        0.47203752786187175      0.5263309127227237       0.6360714992574779
0.4287598164196932        0.5592314775249752       0.6040028293169434       10.000020358038254       1                        0.42875981641969335      0.5592314775249748       0.6040028293169434
0.5392398878372414        0.41009840522290525      0.7609596991751366       9.999993554908922        1                        0.5392398878372417       0.4100984052229054       0.7609596991751365
0.445794442739267         0.3993540809319165       0.776317203074439        9.999984797067423        1                        0.4457944427392669       0.39935408093191627      0.7763172030744392
0.41942331734851057       0.4053113038897811       0.8441844469806903       10.000029896749682       1                        0.4194233173485104       0.40531130388978115      0.8441844469806906
0.46757575245986155       0.3585995123801034       0.8444224935956068       9.999973320097295        1                        0.46757575245986155      0.3585995123801035       0.844422493595607
0.4071822036498565        0.447779770334677        0.7710588901578206       9.99995798695156         1                        0.40718220364985663      0.44777977033467686      0.7710588901578208
0.5034078201485515        0.3843489588015043       0.8026910963853717       9.9999974807477          1                        0.5034078201485512       0.3843489588015042       0.8026910963853718
0.6436709576455608        0.26284950135457263      1                        9.999989586237513        1                        0.643670957645561        0.26284950135457263      1
0.5996495588628189        0.3136973182724556       0.9495691039360197       9.999987114220328        1                        0.5996495588628188       0.3136973182724557       0.9495691039360195
0.5506062585411526        0.2598656715205459       1                        9.999964407400705        1                        0.5506062585411529       0.2598656715205459       1
0.32852028247923587       0.41037015823317907      1                        10.000000933848165       1                        0.3285202824792358       0.41037015823317896      1
0.553971404608199         0.3489450209215935       0.9185927743332996       9.999978755531266        1                        0.5539714046081987       0.34894502092159363      0.9185927743332993
0.49115723807744804       0.39013152945621604      0.927112489792047        9.999980133273633        1                        0.4911572380774482       0.39013152945621604      0.9271124897920472
0.49936292379660707       0.3354676787520869       1                        9.999992652240142        1                        0.49936292379660696      0.3354676787520869       1
0.4282601212173227        0.3935562108482577       0.951964928796043        10.00005694371821        1                        0.42826012121732254      0.39355621084825754      0.9519649287960433
0.40661756015706685       0.35344257112041716      1                        10.000001429235853       1                        0.4066175601570669       0.35344257112041705      1
0.2625955230946569        0.6008008208024199       0.7532204608725575       10.000075350705844       1                        0.26259552309465684      0.6008008208024198       0.7532204608725572
0.2535663837822874        0.6156159264143066       0.8122584960543524       9.999960653665452        1                        0.25356638378228735      0.6156159264143068       0.8122584960543526
0.32093316561734214       0.5614881637043917       0.791343544422639        10.000042618613298       1                        0.32093316561734214      0.5614881637043916       0.791343544422639
0.28774152536732883       0.6722254855766502       0.6868765586032668       9.999996969730182        1                        0.28774152536732883      0.6722254855766502       0.6868765586032667
0.3158195405930197        0.6043759423502593       0.7255317827433388       10.000005804839535       1                        0.31581954059301964      0.6043759423502593       0.7255317827433388
0.43311237565277433       0.5508147214717874       0.6796208329710508       9.999997008446334        1                        0.4331123756527743       0.5508147214717874       0.6796208329710507
0.5073104328897702        0.5638218297798664       0.6036593266029732       10.00000518626905        1                        0.5073104328897705       0.5638218297798665       0.603659326602973
0.4719094875937198        0.6592649674713947       0.5636930393467688       10.0000252816278         1                        0.47190948759372003      0.6592649674713944       0.5636930393467687
0.42661488554968463       0.6145741014148748       0.6556764712344523       10.000043691486791       1                        0.4266148855496846       0.6145741014148745       0.6556764712344522
0.4592943526601199        0.6820551441024992       0.6145900955990006       10.00012467060461        1                        0.4592943526601198       0.682055144102499        0.6145900955990006
0.3690435580913825        0.6079510638980985       0.6978431046141204       10.000036059995988       1                        0.3690435580913825       0.6079510638980987       0.6978431046141205
0.38132028350564945       0.5698832353583547       0.7476599031221357       9.999999694283215        1                        0.38132028350564956      0.5698832353583546       0.7476599031221355
0.29919591232420345       0.9294232826815725       0.5699034907485881       10.00001504611263        1                        0.2991959123242036       0.9294232826815724       0.5699034907485884
0.28773077212127124       0.8860811713628987       0.6098754022173564       9.999941087687342        1                        0.28773077212127135      0.8860811713628984       0.6098754022173565
0.33293779789703365       1                        0.5040355720879406       10.000035166578682       1                        0.3329377978970337       1                        0.5040355720879406
0.2556514087318774        1                        0.5534323010765345       9.999991032212678        1                        0.25565140873187747      1                        0.5534323010765344
0.25740293261079555       0.5515199159583022       1                        10.000013029414736       1                        0.25740293261079555      0.5515199159583021       1
0.3366794493152911        0.5036443432214062       1                        10.00003757638556        1                        0.336679449315291        0.5036443432214063       1
0.20856809150300049       0.6140618919919217       0.9356482656180738       9.999974540401336        1                        0.2085680915030004       0.6140618919919217       0.9356482656180738
0.264749341081153         0.5823871793115691       0.931261354397602        10.000023765798405       1                        0.26474934108115283      0.582387179311569        0.931261354397602
0.28263913875822383       0.6742133641928383       0.8929618485780861       10.000005767056606       1                        0.28263913875822383      0.6742133641928381       0.8929618485780859
0.20358472106545988       0.8424319799899253       0.6368364959506472       10.000059284957253       1                        0.20358472106545997      0.8424319799899253       0.6368364959506468
0.2655026696210705        0.9213695300221124       0.6482365244942173       10.000053854104655       1                        0.26550266962107033      0.9213695300221121       0.6482365244942174
0.21063807289972275       0.7551302104182006       0.8640816905795485       9.999992746341567        1                        0.21063807289972278      0.7551302104182009       0.8640816905795486
0.2285284412108009        0.7077689720019582       0.9075658767491528       10.00000292925842        1                        0.22852844121080101      0.7077689720019579       0.9075658767491531
0.1638977160844587        0.6921692901834173       1                        9.999992011643682        1                        0.16389771608445874      0.6921692901834172       1
0.2571416515687997        0.6397664707167094       1                        10.000005559586969       1                        0.2571416515687997       0.6397664707167096       1
0.15522930957849504       0.7196406922880699       0.938521523062027        10.000042818861976       1                        0.15522930957849507      0.7196406922880699       0.9385215230620271
0.1159708819458464        0.8425799033658206       0.8905428328014522       9.999998855703392        1                        0.11597088194584645      0.8425799033658202       0.8905428328014519
0.16802165807719568       0.810334070794542        0.8685275420356737       10.000015618657807       1                        0.1680216580771957       0.8103340707945423       0.8685275420356736
0.12922409006060412       0.8020548986020279       0.7540860922481079       10.000018561265295       1                        0.12922409006060412      0.8020548986020277       0.7540860922481084
0.075040463730376         0.8715644073972768       0.7616384703840138       9.99998925462044         1                        0.07504046373037604      0.8715644073972764       0.7616384703840139
0.12704722905608104       0.829061861458375        0.8282711400173692       10.000028341030143       1                        0.12704722905608107      0.8290618614583747       0.8282711400173692
0.19879542086047264       0.9153786873718766       0.694533863475588        9.999993276591676        1                        0.19879542086047264      0.9153786873718769       0.6945338634755879
0.15008092746075194       0.901027449301014        0.7271831103941484       10.000014128960144       1                        0.15008092746075186      0.901027449301014        0.7271831103941486
0.12254333533661513       0.9406742687944264       0.7922992795951798       9.999952030353283        1                        0.12254333533661517      0.9406742687944268       0.7922992795951802
0.11596547487974782       0.887272054030362        0.8289537249095215       10.00002961022885        1                        0.11596547487974782      0.8872720540303619       0.8289537249095212
0.19274770458864465       0.8024914488344429       0.8205975044099443       10.000044695493354       1                        0.19274770458864465      0.8024914488344428       0.8205975044099446
0.25473970732380197       1                        0.6466257353023102       10.000017123076525       1                        0.25473970732380197      1                        0.64662573530231
0.1709377648608998        1                        0.7002801285401892       9.999959223646275        1                        0.17093776486089982      1                        0.7002801285401893
0.2605522668635192        0.9606847650110562       0.6992821384830065       10.000020014952895       1                        0.2605522668635193       0.960684765011056        0.6992821384830065
0.1939721594167379        0.7641836462617976       0.9224917287316432       9.999982269232524        1                        0.19397215941673795      0.7641836462617974       0.9224917287316432
0.15976731954107493       0.7669004547418442       1                        9.999981727078755        1                        0.15976731954107493      0.766900454741844        1
0                         1                        0.8999999999999999       9.999953778686267        1                        0                        1                        0.9
0.07442645870273752       0.9564687919000806       0.8807173512337546       9.999995931230329        1                        0.07442645870273751      0.9564687919000803       0.8807173512337545
0.10982789833004772       0.9127709457338125       0.8780210697895707       10.000072643582582       1                        0.10982789833004776      0.9127709457338125       0.8780210697895707
0.07293146283565705       1                        0.8486065117241738       9.999967637900985        1                        0.07293146283565702      1                        0.8486065117241738
0.16463839126335672       1                        0.8014482640470573       9.999975413250683        1                        0.1646383912633567       1                        0.801448264047057
0.16295741471707167       0.82844827858905         0.9532309672006298       10.000031061769022       1                        0.16295741471707173      0.8284482785890502       0.9532309672006297
0.0931998201791626        0.8481699569425749       1                        10.000008470515738       1                        0.0931998201791626       0.8481699569425752       1
0.11476632577257509       0.9184313853877756       0.9555067055069939       10.000012869836203       1                        0.11476632577257508      0.9184313853877758       0.9555067055069945
0.15789984727996095       0.9001040895286292       0.9110134110139877       10.000017467948753       1                        0.15789984727996093      0.9001040895286289       0.9110134110139877
0.06549981343958707       1                        0.9245384767046616       9.999995816853216        1                        0.06549981343958708      1                        0.9245384767046616
0.07163280426518924       0.9367586812469221       1                        9.999965454957366        1                        0.07163280426518924      0.9367586812469221       1
0                         1                        1                        9.99996635537734         1                        0                        1                        1
0.570771453115739         0.6208088647215312       0.5258637967997688       10.000053152859865       1                        0.5707714531157392       0.6208088647215315       0.5258637967997687
0.5734624111291315        0.7389481114426789       0.42519209016958553      10.000079978201112       1                        0.5734624111291317       0.7389481114426791       0.42519209016958537
0.5610221675330097        0.6935196671877158       0.47107012889027083      10.000085988149698       1                        0.5610221675330096       0.6935196671877155       0.4710701288902707
0.5164658275633648        0.6763923173295553       0.5173815841185198       9.999989448652373        1                        0.516465827563365        0.676392317329555        0.5173815841185196
0.48322349719716645       0.7195785494276777       0.4898088179165907       10.000026465328713       1                        0.4832234971971665       0.7195785494276774       0.4898088179165906
0.5435137697026402        0.883397079315903        0.39735628352719454      10.000033875897056       1                        0.5435137697026402       0.8833970793159029       0.39735628352719465
0.5573985019554006        0.8300241613387529       0.3464463364120729       10.000014444204261       1                        0.5573985019554007       0.8300241613387525       0.34644633641207273
0.5859026547252533        0.7843765556976421       0.3793140514489003       10.000067153568098       1                        0.585902654725253        0.7843765556976422       0.37931405144890024
0.4387108441118582        0.8607133211837518       0.43452751012673374      10.00001651438069        1                        0.4387108441118582       0.860713321183752        0.4345275101267335
0.4196210316513322        0.7905907767098088       0.46859998563619076      10.000029943688517       1                        0.4196210316513321       0.7905907767098092       0.4685999856361907
0.48274358154748137       0.8908512527283572       0.4305505009354841       10.000067555730544       1                        0.4827435815474813       0.8908512527283572       0.43055050093548414
0.48975265612538876       0.7667941586318061       0.44222569230735953      10.000038779325942       1                        0.4897526561253885       0.7667941586318062       0.4422256923073598
0.5166332129140145        0.8250956189738545       0.41979098791727704      10.000091612194554       1                        0.5166332129140142       0.8250956189738545       0.4197909879172771
0.374367164947217         0.9489017116343677       0.46311238050145936      10.000024873213357       1                        0.37436716494721706      0.9489017116343672       0.4631123805014593
0.46177272280597315       0.7198000084769289       0.5442900401341974       10.000021546426408       1                        0.46177272280597315      0.7198000084769288       0.5442900401341971
0.4145192641475307        0.722103292575286        0.5947703884759035       10.000033306473536       1                        0.41451926414753076      0.722103292575286        0.5947703884759038
0.8556126542513638        0.9258277912026374       0.1595804052576685       10.000071274573346       1                        0.8556126542513633       0.9258277912026369       0.15958040525766848
0.8197584670151875        0.9142474388373846       0.21291870813405245      10.000066795040164       1                        0.8197584670151875       0.9142474388373845       0.21291870813405248
0.8445749493808687        1                        0.207250073433583        10.000128399385288       1                        0.8445749493808687       1                        0.20725007343358295
0.9292710721122092        1                        0.15349192573690346      10.000093031694366       1                        0.9292710721122094       1                        0.15349192573690343
0.9999999999999998        0.9999999999999998       0.09999999999999998      10.000155798323203       1                        0.9999999999999999       0.9999999999999999       0.09999999999999998
1                         0.9076361318842153       0.1537388997871642       10.000059511889337       1                        1                        0.9076361318842155       0.1537388997871642
0.9247149398197545        0.9237087754618515       0.21244922427963148      10.000079263293484       1                        0.9247149398197544       0.923708775461851        0.21244922427963156
0.8504502450515304        0.5650833184532223       0.3612535991302494       10.000017144675994       1                        0.85045024505153         0.5650833184532223       0.36125359913024924
0.8568289892170524        0.5233810129787552       0.4021025403467846       10.000012488445268       1                        0.8568289892170527       0.5233810129787552       0.4021025403467845
0.914978013183545         0.6637003549160684       0.32065398109953663      10.000034735749532       1                        0.9149780131835451       0.6637003549160684       0.32065398109953674
0.8827141291175378        0.6143918366846454       0.34095379011489296      10.000051965542248       1                        0.8827141291175379       0.614391836684645        0.34095379011489313
0.9413570645587689        0.6092788696684822       0.3426505173805539       10.00011136811139        1                        0.9413570645587688       0.6092788696684823       0.3426505173805541
0.6951347018532362        0.6910995722375544       0.3769874726649361       10.000031682313592       1                        0.6951347018532362       0.6910995722375545       0.3769874726649362
0.7244533956631972        0.474399675080429        0.4475678115796458       10.00002214521473        1                        0.724453395663197        0.47439967508042896      0.44756781157964565
0.8013453057124652        0.4642006137313426       0.4937154551766387       10.000017722305346       1                        0.8013453057124651       0.46420061373134286      0.49371545517663873
0.6885589385771866        0.6047032496532474       0.40465705255250595      10.00000247312387        1                        0.6885589385771864       0.6047032496532476       0.404657052552506
0.7327551107860134        0.5641240202563406       0.4111552224351386       10.000067176174992       1                        0.7327551107860135       0.5641240202563403       0.4111552224351384
0.6720326991828789        0.5194138062773648       0.5005535122505395       10.000005693481889       1                        0.6720326991828786       0.5194138062773649       0.5005535122505393
0.5425833379176687        0.6013127468370095       0.5712471539484681       10.000029703818171       1                        0.5425833379176689       0.6013127468370097       0.5712471539484679
0.6365117655265577        0.712134892027992        0.4576462155629877       10.000046412800712       1                        0.6365117655265579       0.7121348920279922       0.45764621556298785
0.6178817850000085        0.628243779228772        0.4849364949283815       9.999996185478562        1                        0.6178817850000086       0.6282437792287717       0.48493649492838165
0.6725014558107701        0.6321679160223025       0.4522007175251261       10.000102792242034       1                        0.6725014558107705       0.6321679160223025       0.45220071752512603
0.6722670774968245        0.5757908611498336       0.4763771148878328       10.000035673947531       1                        0.6722670774968246       0.5757908611498336       0.47637711488783263
0.6490825866010796        0.5855377136641203       0.5260866491479161       10.000039498392532       1                        0.6490825866010792       0.5855377136641203       0.5260866491479164
0.6543332728776546        0.6047573206904434       0.4859208624015854       10.000099947639011       1                        0.6543332728776547       0.6047573206904434       0.4859208624015852
0.7428415388516585        0.46578216099732245      0.5472550990577317       10.000032330987242       1                        0.742841538851658        0.46578216099732256      0.5472550990577321
0.80159985138639          0.5194162218199041       0.4512703228488075       10.000001618131815       1                        0.8015998513863896       0.5194162218199042       0.4512703228488077
0.8467503708226427        0.5862160303772002       0.4289349443879178       9.999997302886083        1                        0.8467503708226426       0.5862160303771999       0.4289349443879179
0.8268086755979426        0.7201361078056463       0.3182012592503198       10.000036151517753       1                        0.826808675597942        0.7201361078056469       0.3182012592503198
0.8236613248287951        0.7565424634247166       0.25794405765613887      10.000090461643067       1                        0.8236613248287947       0.7565424634247163       0.25794405765613876
0.7592888636069816        0.7587557056713837       0.2540709641852818       10.00005733547088        1                        0.7592888636069816       0.7587557056713835       0.2540709641852817
0.7593980133410158        0.7238210178311355       0.3174657651605374       10.00013433615953        1                        0.759398013341016        0.7238210178311353       0.3174657651605373
0.7330678568386843        0.7788635122586407       0.29768828207006665      10.000084490637793       1                        0.733067856838684        0.7788635122586405       0.2976882820700667
0.8480523891117208        0.8649634070588166       0.221380593781973        10.000106948469975       1                        0.8480523891117213       0.8649634070588165       0.2213805937819729
0.7839042797790112        0.9026670864721318       0.26625701101043636      10.000077936788513       1                        0.7839042797790117       0.9026670864721318       0.2662570110104365
0.7711101615581664        0.8316927644394786       0.281783892450453        10.000062242369497       1                        0.7711101615581663       0.8316927644394786       0.281783892450453
0.8276651095702903        0.9209013511641555       0.3033411181257662       10.000076443149956       1                        0.8276651095702903       0.9209013511641557       0.30334111812576625
0.7978243706232004        0.6183799327223771       0.41168995602850134      10.000033373641319       1                        0.7978243706232001       0.6183799327223768       0.41168995602850156
0.7741423101722442        0.7233598430873599       0.39659249643264516      10.000041887745025       1                        0.7741423101722446       0.72335984308736         0.39659249643264505
0.8299560263670901        0.683729752186576        0.37845846084450074      10.000091345164936       1                        0.8299560263670903       0.6837297521865758       0.3784584608445006
0.7212130581888565        0.6525058903528154       0.43072665638724206      10.000064482065326       1                        0.7212130581888567       0.6525058903528153       0.43072665638724217
0.9225779209876634        0.8026643424234181       0.24225921612204998      10.000070741685738       1                        0.9225779209876634       0.8026643424234181       0.2422592161220499
0.923646430403709         0.8631865589426349       0.22735422020084073      10.000060345821927       1                        0.923646430403709        0.863186558942635        0.22735422020084073
1                         0.8431795194421312       0.23260970016751628      10.000057014898674       1                        1                        0.8431795194421312       0.2326097001675163
0.8760161700446231        0.8404677870678883       0.286554833302121        10.00009902788262        1                        0.8760161700446231       0.8404677870678883       0.28655483330212106
0.9118306624143975        0.7579111339231333       0.3122582136194648       10.0000351996704         1                        0.9118306624143978       0.7579111339231335       0.31225821361946493
1                         0.7510619417383013       0.25966397583330747      10.000037729563036       1                        1                        0.7510619417383014       0.25966397583330736
1                         0.6831484779249081       0.33211590487704984      10.000015532853906       1                        1                        0.6831484779249078       0.3321159048770498
0.770003632162077         0.4170327676641923       0.5976179038348616       9.99994431137927         1                        0.7700036321620768       0.41703276766419245      0.5976179038348612
1                         0.5964187211811365       0.35331002365925385      10.000003095185983       1                        1                        0.5964187211811364       0.35331002365925374
0.9354722318679853        0.4876351897851156       0.37758376956845163      10.000019030518073       1                        0.9354722318679859       0.4876351897851153       0.37758376956845136
0.9478381855110425        0.5752354246065798       0.399744978203294        10.000061508417962       1                        0.9478381855110422       0.5752354246065802       0.3997449782032943
0.9381873644303125        0.43636407638252483      0.46249418792370944      9.999982527325994        1                        0.9381873644303125       0.43636407638252467      0.4624941879237097
1                         0.4029013204556492       0.44999540434712104      10.000019260376586       1                        1                        0.40290132045564925      0.4499954043471209
1                         0.465904539432215        0.40869889643323015      10.000047095854741       1                        1                        0.4659045394322149       0.40869889643323015
1                         0.5288334948503625       0.4111188017209051       10.000074482841955       1                        1                        0.5288334948503625       0.411118801720905
0.8334235651394217        0.2697823987582508       0.7157813773654376       9.999973479461346        1                        0.8334235651394218       0.26978239875825066      0.7157813773654378
0.8419877724392859        0.31633071155621945      0.68003932439087         9.999938399020964        1                        0.8419877724392856       0.3163307115562193       0.6800393243908703
0.8763747288606248        0.4698268323094005       0.47499297150029784      9.999987335545775        1                        0.8763747288606252       0.46982683230940075      0.4749929715002975
0.8154542018636889        0.42686556431478945      0.5359650382863977       9.999979958554508        1                        0.8154542018636887       0.4268655643147897       0.5359650382863976
0.8781589460061281        0.37998200344299293      0.5306430300054299       9.999984298920422        1                        0.8781589460061278       0.37998200344299293      0.5306430300054301
0.8247549658329791        0.41362085597318543      0.6137978746865892       10.000014969860533       1                        0.8247549658329788       0.41362085597318543      0.6137978746865893
0.7955980402913998        0.4696312021584109       0.6024642112628527       9.999998310349314        1                        0.7955980402913998       0.4696312021584107       0.6024642112628524
0.8317584003455505        0.5121435365284384       0.5205819898812462       9.999979811768263        1                        0.8317584003455505       0.5121435365284381       0.5205819898812458
0.8968915090111877        0.40128246367952936      0.5895186424849949       9.999997531527642        1                        0.8968915090111874       0.40128246367952947      0.5895186424849949
0.9324448495425743        0.4332751017922127       0.5509555180621678       9.999966198399319        1                        0.9324448495425738       0.4332751017922126       0.5509555180621676
0.939079473003064         0.3637719997938471       0.562343273601755        10.000029709933832       1                        0.9390794730030643       0.36377199979384733      0.562343273601755
0.9353161069864434        0.4813043519848662       0.511868549043377        10.00004047633222        1                        0.9353161069864434       0.48130435198486604      0.511868549043377
1                         0.4037271142845782       0.5251702263388455       9.99996364543628         1                        1                        0.4037271142845782       0.5251702263388455
1                         0.34756199614470135      0.5940435171980799       9.999995178116786        1                        1                        0.34756199614470135      0.5940435171980798
0.9306690842399006        0.3475356546926407       0.6544583160842286       9.999995658461518        1                        0.9306690842399011       0.3475356546926404       0.6544583160842286
0.8985083604062531        0.29998961261114304      0.7068624028954406       10.000032063572435       1                        0.8985083604062535       0.29998961261114315      0.7068624028954406
0.8920368767747866        0.4016775004914673       0.6664734820774555       9.99997486181901         1                        0.8920368767747866       0.4016775004914674       0.6664734820774553
0.9492541802031266        0.32784071488556826      0.7306478238235025       9.999934606353047        1                        0.9492541802031267       0.3278407148855684       0.7306478238235026
1                         0.32578148381843536      0.6808348652606353       10.00002719676908        1                        1                        0.3257814838184353       0.6808348652606354
0.8421812427271042        0.11346312390532157      0.933808437240397        9.999972388912756        1                        0.8421812427271042       0.11346312390532157      0.9338084372403973
0.835177203107469         0.153940996091431        0.867616874480794        9.999946161998647        1                        0.8351772031074692       0.15394099609143105      0.8676168744807945
0.8830243421658032        0.19080466458956236      0.8141111108513377       9.99997602497481         1                        0.8830243421658036       0.19080466458956236      0.8141111108513379
0.9295503863183181        0.14403644612181435      0.8463467803302245       9.99996588152144         1                        0.9295503863183184       0.1440364461218144       0.8463467803302244
0.9175886015537345        0.11278690017831014      0.902187777863858        9.999963210924191        1                        0.9175886015537348       0.1127869001783101       0.9021877778638582
0.9587943007768671        0.10639345008915504      0.9510938889319289       9.999948449777861        1                        0.9587943007768673       0.10639345008915503      0.9510938889319289
0.9999999999999998        0.09999999999999998      0.9999999999999998       9.999980477192059        1                        0.9999999999999999       0.09999999999999998      0.9999999999999999
0.9312199110041154        0.23715818540682282      0.7558195188806297       10.000018976108654       1                        0.931219911004116        0.23715818540682296      0.7558195188806293
1                         0.25247866933800767      0.7415814864063452       9.999992665185117        1                        1                        0.25247866933800767      0.7415814864063452
1                         0.2069818383887531       0.8415321642605396       9.999981346909259        1                        1                        0.20698183838875306      0.8415321642605398
1                         0.1567416351833319       0.9306612821403019       9.999932547117462        1                        1                        0.15674163518333192      0.9306612821403016
0.9231508040494887        0.33128315116435825      0.781858715148328        9.999982676277263        1                        0.9231508040494883       0.3312831511643583       0.7818587151483279
0.9076361318842153        0.1537388997871642       1                        9.999910860765997        1                        0.9076361318842153       0.15373889978716418      1
0.3192309675372245        0.6048248530375321       0.8738299515610679       9.999988697451725        1                        0.31923096753722463      0.6048248530375323       0.8738299515610674
0.32093059065930557       0.5507124666312165       0.9268744431771303       10.000024321003412       1                        0.3209305906593054       0.5507124666312163       0.9268744431771303
0.46586166466562867       0.46761087387277855      0.7619885530982875       10.000040476844122       1                        0.4658616646656289       0.4676108738727786       0.7619885530982876
0.3773619850506299        0.446949673506776        0.9452748556903061       9.999994436312065        1                        0.37736198505062996      0.4469496735067759       0.9452748556903061
0.41901505063479305       0.4444577673680369       0.9179717951891883       9.999999297819556        1                        0.41901505063479305      0.4444577673680368       0.9179717951891885
0.3699728206470493        0.4975851169996267       0.9224231191831593       9.999999750056453        1                        0.3699728206470494       0.49758511699962676      0.922423119183159
0.5209577238102103        0.4699830276964747       0.6904136599895058       9.999999840878523        1                        0.5209577238102105       0.4699830276964748       0.690413659989506
0.5695212433192673        0.4588263080196097       0.6397551724447782       10.000007522976235       1                        0.569521243319267        0.4588263080196099       0.6397551724447781
0.5816457760781809        0.435761708418762        0.7240315027164077       10.000004453507954       1                        0.5816457760781811       0.43576170841876194      0.7240315027164074
0.6132571882416177        0.5433605262026243       0.5788012685501676       10.000031337099136       1                        0.6132571882416176       0.5433605262026242       0.5788012685501677
0.567107456025914         0.5066717769495496       0.6346074642698366       10.000050953272167       1                        0.567107456025914        0.5066717769495495       0.6346074642698363
0.4010912599477568        0.5248101165989386       0.8640274655725809       10.000025554132108       1                        0.4010912599477568       0.5248101165989388       0.8640274655725808
0.4102572886481337        0.46506071024435985      0.8541059562766355       10.000000119216692       1                        0.41025728864813366      0.4650607102443599       0.8541059562766357
0.6200206464078039        0.6466802631013121       0.5726790494198453       10.000035868490594       1                        0.6200206464078039       0.6466802631013118       0.5726790494198452
0.7638902096527118        0.23111359044141327      0.8252849305742781       9.99997555611382         1                        0.7638902096527115       0.2311135904414134       0.8252849305742781
0.6931540961427224        0.23862802324657334      0.8780671307806014       10.000026205102728       1                        0.6931540961427224       0.2386280232465732       0.8780671307806012
0.7744074526008202        0.20663681166749803      0.9215714072394187       9.999916623395645        1                        0.7744074526008202       0.20663681166749812      0.921571407239419
0.8391783612748002        0.1932753481294736       0.933808437240397        9.999952352000609        1                        0.8391783612748004       0.19327534812947358      0.9338084372403973
0.8435205068511002        0.28119837080288573      0.8035718228613031       9.999984484091776        1                        0.8435205068510998       0.2811983708028858       0.8035718228613032
0.9217602534255501        0.24409010459581942      0.8225519935609213       9.999941689879817        1                        0.9217602534255499       0.2440901045958193       0.8225519935609213
0.8393488549792847        0.21756968344715838      0.8355943486710485       9.999975634420766        1                        0.8393488549792848       0.21756968344715846      0.8355943486710483
0.7833404579564878        0.29653014072125156      0.8448757793396027       10.000000413022542       1                        0.7833404579564878       0.2965301407212515       0.8448757793396027
0.6564692405462724        0.3247255143022943       0.8493529279240729       9.999967755337979        1                        0.6564692405462723       0.32472551430229424      0.8493529279240731
0.7181040000850134        0.291352259045274        0.8572514641873065       9.999916821961962        1                        0.7181040000850133       0.291352259045274        0.8572514641873067
0.8431795194421312        0.23260970016751628      1                        9.999940754712338        1                        0.8431795194421312       0.23260970016751634      1
0.769452412148466         0.332803598605392        0.7559431214388082       9.999990625995212        1                        0.7694524121484664       0.33280359860539194      0.7559431214388078
0.7999011006931329        0.3864873473082714       0.670244943239975        10.000013444780704       1                        0.7999011006931328       0.3864873473082715       0.6702449432399752
0.7405076988629464        0.34217968300626667      0.8230264350407318       10.000006207584317       1                        0.7405076988629464       0.3421796830062665       0.8230264350407313
0.8098848836565675        0.374520983175288        0.7840326077513459       9.999994953519145        1                        0.8098848836565672       0.3745209831752881       0.7840326077513459
0.7227911137088612        0.3864713980406559       0.6515833789544462       9.999975905906068        1                        0.7227911137088615       0.38647139804065606      0.6515833789544463
0.6896301608171714        0.4206307351075583       0.6087129987221785       10.000035093029242       1                        0.6896301608171717       0.4206307351075581       0.6087129987221789
0.6526134138576637        0.4087882750423515       0.6852715509233148       10.000025421316222       1                        0.6526134138576635       0.40878827504235127      0.6852715509233147
0.6706660998081174        0.49410082430890423      0.6191687863958026       9.999967410233653        1                        0.6706660998081175       0.49410082430890445      0.6191687863958024
0.629799779654533         0.44525974900243326      0.6456229043262003       10.000015505954169       1                        0.629799779654533        0.44525974900243337      0.6456229043262004
0.7333061587390811        0.39765823522783406      0.7244537209346787       10.000000281059823       1                        0.7333061587390811       0.39765823522783417      0.7244537209346791
0.6407545406761165        0.4574456066330628       0.7195598408147362       9.99994494217141         1                        0.6407545406761165       0.4574456066330628       0.719559840814736
0.652251703260386         0.4381333571044115       0.7661714462209047       10.000000129795021       1                        0.6522517032603861       0.4381333571044117       0.766171446220905
0.6777236836825329        0.3681550528451027       0.8056722278910886       10.000004067699985       1                        0.677723683682533        0.3681550528451025       0.8056722278910883
0.5961631898493704        0.40094011353643         0.7909427946234966       10.000011419009342       1                        0.5961631898493706       0.40094011353643016      0.7909427946234969
0.5741538376170534        0.4625491244676183       0.7977132525444051       10.000007136541294       1                        0.5741538376170537       0.4625491244676182       0.797713252544405
0.7439359805185601        0.40429881546667734      0.7867874252517938       9.999965038057878        1                        0.7439359805185606       0.4042988154666773       0.7867874252517937
0.7510619417383013        0.25966397583330747      1                        9.999950196273268        1                        0.7510619417383014       0.25966397583330736      1
0.7313124636578641        0.3056098716202244       0.9450548743213277       9.999957878259691        1                        0.7313124636578645       0.3056098716202244       0.945054874321328
0.6670964301011827        0.2898472422529409       0.9220965410966835       9.999999072861167        1                        0.6670964301011826       0.289847242252941        0.9220965410966832
0.5577701855557754        0.4232461506663102       0.8477666019666742       9.99998092400393         1                        0.5577701855557753       0.4232461506663103       0.8477666019666744
0.607119713051024         0.3739858324843022       0.8485597649453736       9.99997969134349         1                        0.6071197130510236       0.37398583248430234      0.848559764945374
0.6203352648945902        0.34116484381319295      0.9157528691803838       10.000001991489487       1                        0.6203352648945903       0.3411648438131929       0.9157528691803838
0.683148477924908         0.3321159048770502       1                        9.999934866322983        1                        0.6831484779249078       0.3321159048770502       1
0.7263063814976507        0.47643931501697473      0.6281876127402152       10.00003095923097        1                        0.7263063814976506       0.4764393150169748       0.628187612740215
0.6743017940711832        0.5385219052312481       0.6431631824214207       9.999977702186813        1                        0.6743017940711832       0.5385219052312482       0.6431631824214208
0.7434075626691614        1                        0.2524909206330656       10.000027784218053       1                        0.7434075626691617       1                        0.2524909206330656
0.7517831076927518        0.7890342734755764       0.3584971886744547       10.00005179985148        1                        0.751783107692752        0.7890342734755761       0.3584971886744546
0.7185589982875377        0.9068430654542405       0.3056237272447671       10.000074221332277       1                        0.7185589982875377       0.9068430654542399       0.3056237272447672
0.7615824265037483        0.8459786813104196       0.34480349216933026      10.000089425134727       1                        0.7615824265037484       0.8459786813104199       0.34480349216933015
0.6703674912215765        0.8732383757992788       0.36185598320772194      10.000105576613102       1                        0.6703674912215762       0.8732383757992787       0.36185598320772183
0.647024548537239         0.9327906206900767       0.3649554325589753       10.00005147001557        1                        0.6470245485372389       0.9327906206900767       0.3649554325589754
0.6811648567138405        1                        0.32592767764423886      10.000005229188769       1                        0.6811648567138403       1                        0.3259276776442389
0.5860608580365698        0.9372445801740141       0.40585230745068046      10.000042277794815       1                        0.5860608580365697       0.9372445801740138       0.4058523074506805
0.5972748832798918        1                        0.3524868747470296       9.99999630657108         1                        0.5972748832798918       1                        0.3524868747470296
0.6470106140488106        0.7963032982151297       0.3959137089256044       10.00008908989355        1                        0.6470106140488103       0.7963032982151295       0.39591370892560457
0.6937104339059139        0.8136861309084811       0.3587565338564686       10.000055972499416       1                        0.6937104339059137       0.8136861309084807       0.35875653385646866
0.7183285939773982        0.7629899339881439       0.41472653202078963      10.000086406034377       1                        0.7183285939773983       0.7629899339881443       0.41472653202078985
0.6005220752423455        0.7921018680336817       0.4630917136008493       10.00003362953917        1                        0.6005220752423455       0.7921018680336815       0.46309171360084933
0.6535025498083763        0.8548685324626609       0.41367665579429064      10.000067910503205       1                        0.6535025498083763       0.8548685324626606       0.41367665579429064
0.30638756982449494       0.8371883874392007       0.5622269692307612       10.00004925590686        1                        0.30638756982449483      0.8371883874392011       0.5622269692307609
0.3606450296983458        0.9382960325058352       0.5592446832281409       9.999982924926984        1                        0.36064502969834583      0.9382960325058355       0.5592446832281408
0.3911681576643499        0.8765920650116703       0.5226784248629575       10.000020390299017       1                        0.3911681576643497       0.8765920650116709       0.5226784248629577
0.45163595801822654       0.7803350494824632       0.524887040921626        10.000035151049188       1                        0.45163595801822626      0.7803350494824633       0.5248870409216261
0.3436254712168416        0.8924708088395887       0.6108293395991812       10.000005737959093       1                        0.3436254712168417       0.8924708088395887       0.6108293395991813
0.3967209722179317        0.7921544839855916       0.5656329802968968       10.000037314378993       1                        0.39672097221793146      0.7921544839855913       0.5656329802968968
0.20890579261983638       0.7930073112488608       0.688865287773068        10.000003477567628       1                        0.20890579261983636      0.7930073112488608       0.6888652877730681
0.19290901689155465       0.8450077083536417       0.7419304471502611       10.000064460065671       1                        0.19290901689155462      0.8450077083536415       0.7419304471502614
0.276265631918339         0.8427390600442248       0.6498473136861246       9.999996439099311        1                        0.2762656319183391       0.8427390600442249       0.6498473136861248
0.19358683289138628       0.7602599519594465       0.7475830273577025       10.000043808088346       1                        0.1935868328913863       0.7602599519594463       0.7475830273577025
0.2890843277656448        0.6905001223367552       0.8292543318400496       9.999983734786197        1                        0.2890843277656448       0.6905001223367554       0.8292543318400499
0.25575797975222786       0.6670404658655859       0.776669229260825        10.00002690965425        1                        0.25575797975222786      0.6670404658655861       0.7766692292608254
0.25794957572216837       0.718465005316865        0.7410799624672975       10.000041382529306       1                        0.25794957572216853      0.7184650053168652       0.7410799624672978
0.3571290407013415        0.7849416176791775       0.6258477376050382       10.000029096483797       1                        0.3571290407013415       0.7849416176791771       0.6258477376050385
0.27745268568563025       0.7765087162081883       0.6830938703120001       10.000041372415744       1                        0.27745268568563025      0.7765087162081881       0.6830938703119999
0.33599133368917755       0.8340098136246606       0.6563140937537214       10.000026164572871       1                        0.33599133368917755      0.8340098136246609       0.6563140937537214
0.3882989131290431        0.666939743482505        0.6930757793443821       10.000031711913511       1                        0.38829891312904324      0.666939743482505        0.6930757793443818
0.3420658094506928        0.7240445593573396       0.6957198174890833       10.000013846065695       1                        0.3420658094506929       0.7240445593573397       0.6957198174890832
0.4075542681667036        0.7259284230669115       0.6883084540746439       9.999997316925691        1                        0.4075542681667034       0.7259284230669114       0.6883084540746439
0.25844818012120824       0.7759210362105109       0.8129238688025191       10.00003149024926        1                        0.25844818012120824      0.7759210362105111       0.8129238688025187
0.43517974192372977       0.927422792151148        0.47822136554908573      10.000062236459296       1                        0.43517974192372955      0.9274227921511481       0.47822136554908573
0.5250971675359006        0.9416985396579516       0.4467491823423856       10.000008806057076       1                        0.5250971675359005       0.9416985396579517       0.4467491823423854
0.47175006768799066       1                        0.41132243762865395      10.00008651357595        1                        0.47175006768799055      1                        0.41132243762865384
0.4071736764269152        1                        0.45665023218757944      9.999998833992086        1                        0.40717367642691527      1                        0.45665023218757944
0.5346384232044324        1                        0.40923718053632985      10.00005879481343        1                        0.5346384232044324       1                        0.4092371805363299
0.6282662059671807        0.6794075775646521       0.5151626324914165       10.00000039772495        1                        0.628266205967181        0.679407577564652        0.5151626324914164
0.5476183774487435        0.5295286722716767       0.6812744369156569       10.000028400559263       1                        0.5476183774487435       0.5295286722716768       0.6812744369156571
0.4958613427073471        0.5823642321415731       0.6680054900926257       10.000019023780682       1                        0.49586134270734716      0.5823642321415732       0.6680054900926256
0.5214656633649223        0.49302806019746864      0.748128672168432        10.000031429330537       1                        0.5214656633649224       0.4930280601974688       0.7481286721684323
0.41173212670576753       0.5165809955247099       0.7936433636083204       9.999978424538625        1                        0.41173212670576775      0.5165809955247096       0.7936433636083206
0.48592888659199035       0.5358676668136406       0.7476599031221357       10.000022327316385       1                        0.48592888659199035      0.5358676668136405       0.7476599031221354
0.5040694411727092        0.6420069956297125       0.6344098027220978       10.00002310551974        1                        0.504069441172709        0.6420069956297124       0.634409802722098
0.5620450437902565        0.6443436293655124       0.6035444260709715       10.000034287334273       1                        0.5620450437902563       0.6443436293655123       0.6035444260709716
0.482951552358289         0.4447953801603452       0.8542249795840939       9.999994169096603        1                        0.482951552358289        0.44479538016034514      0.8542249795840933
0.5964187211811366        0.35331002365925385      1                        9.99999214470958         1                        0.5964187211811366       0.35331002365925374      1
0.5594959306611809        0.4161405767388706       0.9206541121746272       9.99997055323599         1                        0.5594959306611808       0.41614057673887045      0.9206541121746276
0.4924473873320014        0.44316271590142725      0.9635562448960235       10.000005713756892       1                        0.49244738733200133      0.4431627159014272       0.9635562448960237
0.4029013204556493        0.4499954043471209       1                        9.999908975114533        1                        0.40290132045564947      0.44999540434712076      1
0.5288334948503624        0.41111880172090504      1                        9.999979206935942        1                        0.5288334948503622       0.4111188017209049       1
0.46590453943221494       0.4086988964332301       1                        9.999994790342406        1                        0.46590453943221494      0.4086988964332301       1
0.3381958606810136        0.6326144177680325       0.8114839919207133       10.000035715269611       1                        0.3381958606810134       0.6326144177680324       0.8114839919207134
0.4162820497616786        0.5853822207147429       0.8162278370588204       10.000030644333869       1                        0.4162820497616784       0.5853822207147431       0.8162278370588206
0.3571607538248026        0.6604039824985329       0.7491380322803586       10.00001882154852        1                        0.35716075382480267      0.6604039824985329       0.7491380322803587
0.47574221550987          0.609284455618028        0.7226161773089316       9.999985215042784        1                        0.4757422155098699       0.6092844556180278       0.722616177308932
0.5742790310872768        0.5890743168468787       0.6721352138418081       10.000054436397273       1                        0.574279031087277        0.5890743168468792       0.672135213841808
0.5196851575528226        0.6383975515604229       0.6999394809277731       10.0000619434017         1                        0.5196851575528226       0.638397551560423        0.6999394809277729
0.499638249279899         0.7194481640142839       0.6267166944463949       10.000080993079974       1                        0.499638249279899        0.7194481640142844       0.6267166944463949
0.4655555444277497        0.6827012444224155       0.6975724514957273       10.000065581832503       1                        0.4655555444277494       0.6827012444224158       0.6975724514957272
0.4556706708886336        0.7474550846300448       0.7025524069620169       10.00002470125726        1                        0.4556706708886338       0.7474550846300451       0.7025524069620169
0.43147283957560034       0.6459543248305472       0.7684282085450599       9.999984030850602        1                        0.43147283957560023      0.6459543248305475       0.7684282085450601
0.32250622567782994       0.6428298591490835       0.936914975780534        9.999990321593001        1                        0.32250622567782994      0.6428298591490834       0.936914975780534
0.37359044244769546       0.7070437870759391       0.8433769101817935       9.999996653658805        1                        0.37359044244769546      0.7070437870759391       0.8433769101817934
0.4037271142845782        0.5251702263388454       1                        9.999984169629302        1                        0.4037271142845782       0.5251702263388455       1
0.3148536266770136        0.8830780095701438       0.6867804499024047       10.000039748499615       1                        0.3148536266770136       0.8830780095701439       0.6867804499024044
0.37502505520627205       0.9462354044197944       0.6313186870761119       10.000000990135428       1                        0.37502505520627216      0.9462354044197948       0.6313186870761119
0.41471936772728657       1                        0.5495437219616863       10.000052151317991       1                        0.4147193677272866       1                        0.5495437219616865
0.33012190173234174       1                        0.5958109415933243       9.999997658667537        1                        0.33012190173234174      1                        0.5958109415933243
0.3475619961447012        0.5940435171980798       1                        10.000030614145972       1                        0.3475619961447013       0.5940435171980798       1
0.3480483340627627        0.6749368231125114       0.8901459429811638       9.99999443732577         1                        0.3480483340627627       0.6749368231125117       0.8901459429811638
0.23271500925498073       0.8087266002355251       0.9064619344012596       9.999993786861884        1                        0.23271500925498065      0.8087266002355249       0.9064619344012596
0.31542172775478444       0.7513590296982127       0.8550561631191949       10.00000550583365        1                        0.31542172775478444      0.7513590296982129       0.8550561631191943
0.3641876763185215        0.7397907252076104       0.8883723091050458       9.999943988051363        1                        0.3641876763185215       0.7397907252076105       0.8883723091050458
0.32074103304652973       0.7179956963594832       0.9146271659200248       9.999974472917232        1                        0.32074103304652984      0.7179956963594836       0.9146271659200249
0.27715496251461813       0.6943019186312966       0.9537829383745764       9.999973973900929        1                        0.27715496251461824      0.6943019186312966       0.9537829383745764
0.32578148381843536       0.6808348652606351       1                        10.00001600091254        1                        0.3257814838184353       0.6808348652606353       1
0.23468007633118304       0.8378886531753648       0.849315210358625        9.999976755067758        1                        0.2346800763311831       0.8378886531753644       0.8493152103586253
0.2565939437225051        0.8879605181052554       0.7297748020524145       10.000009788963082       1                        0.2565939437225051       0.8879605181052559       0.7297748020524145
0.31371059797381196       0.9439802590526277       0.7403375757815229       10.000010862599428       1                        0.31371059797381207      0.9439802590526278       0.7403375757815227
0.3253486063287423        1                        0.6735722633621487       10.000055511384678       1                        0.3253486063287422       1                        0.6735722633621487
0.2549349858847994        0.751514259433411        0.9301224363879179       10.000018166828001       1                        0.25493498588479935      0.7515142594334105       0.9301224363879182
0.25247866933800767       0.7415814864063452       1                        10.000048004308473       1                        0.25247866933800767      0.7415814864063451       1
0.18948241308186003       0.8735560471963613       0.8600120379472936       9.99999833157258         1                        0.18948241308186012      0.8735560471963607       0.8600120379472934
0.1849847095320815        0.8908928659759112       0.7863302990737184       9.999993765722525        1                        0.18498470953208146      0.8908928659759108       0.7863302990737183
0.21061616749293094       0.9439802590526277       0.765611533049736        10.00004318005017        1                        0.21061616749293086      0.9439802590526274       0.7656115330497358
0.15971137130299037       0.943410622368535        0.84804658624385         9.999983989024404        1                        0.15971137130299032      0.9434106223685353       0.84804658624385
0.23664514340738535       0.8670507061152044       0.7921684863159906       9.9999729781779          1                        0.23664514340738543      0.8670507061152044       0.7921684863159905
0.25560186410596786       1                        0.7503277524717957       10.000042681446729       1                        0.25560186410596775      1                        0.7503277524717956
0.20698183838875323       0.8415321642605393       1                        10.000007581063148       1                        0.20698183838875328      0.8415321642605391       1
0.22105848801899192       0.8964083578591989       0.9300060189736468       9.999991865796904        1                        0.2210584880189919       0.8964083578591987       0.9300060189736464
0.23240392309118874       1                        0.8429810297705334       9.999961851079803        1                        0.2324039230911888       1                        0.8429810297705334
0.15370378157650322       1                        0.9077006360194372       9.999961382484733        1                        0.15370378157650322      1                        0.9077006360194368
0.18738113479774757       0.9482041789295994       0.918853327496542        9.999994494140314        1                        0.1873811347977475       0.9482041789295994       0.918853327496542
0.1567416351833319        0.9306612821403022       1                        10.00000768252596        1                        0.15674163518333192      0.9306612821403024       1
0.10000000000000002       1                        1                        9.999989898157592        1                        0.10000000000000002      1                        1
0.565748537046269         0.7042127505574822       0.5487567060985639       10.000040320101828       1                        0.5657485370462694       0.7042127505574823       0.5487567060985638
0.5831353061443072        0.7481573092955819       0.5059242098497065       10.000051196903339       1                        0.5831353061443069       0.7481573092955819       0.5059242098497064
0.5114764276847341        0.7617452380136523       0.5248343627772825       10.000071124608453       1                        0.511476427684734        0.7617452380136526       0.5248343627772823
0.5649639393124266        0.8605732764953478       0.44419388282469485      10.000028739780351       1                        0.5649639393124269       0.8605732764953479       0.4441938828246949
0.5027215895417169        0.8678566605918758       0.4829384829251418       10.000020868894687       1                        0.5027215895417165       0.8678566605918759       0.4829384829251419
0.6132946657108388        0.8960509340168408       0.4685967777321126       10.000061718015832       1                        0.6132946657108389       0.8960509340168411       0.46859677773211256
0.5391043813281549        0.8183726190068261       0.5280919092504162       10.000041775765943       1                        0.5391043813281549       0.8183726190068262       0.5280919092504165
0.42247532815057776       0.9266407184628147       0.5483075110695381       10.000056629000802       1                        0.4224753281505776       0.9266407184628149       0.5483075110695381
0.4836508843851208        0.7700793222551177       0.5811740962070612       10.000038537360673       1                        0.48365088438512066      0.7700793222551177       0.581174096207061
0.4558253410855075        0.778413406496583        0.63751382963684         10.000074606693458       1                        0.4558253410855074       0.7784134064965827       0.6375138296368399
0.8329578135177834        1                        0.30511737763706437      10.000038361428038       1                        0.8329578135177834       1                        0.30511737763706437
0.8796510794658301        0.9500893418555914       0.2522136083722544       10.00011651671272        1                        0.8796510794658302       0.9500893418555914       0.2522136083722544
0.9161047000785795        1                        0.2526382299346278       10.000119278271434       1                        0.9161047000785794       1                        0.25263822993462787
1                         1                        0.19999999999999996      10.00008735515972        1                        1                        1                        0.19999999999999996
0.9147272095507913        0.9001786837111826       0.29717714331092576      10.000043589381365       1                        0.914727209550791        0.9001786837111824       0.29717714331092554
1                         0.9220861357100069       0.2635038361396596       10.00006861961229        1                        1                        0.9220861357100069       0.26350383613965966
0.5948983359972321        0.6994597053520014       0.597226755281384        9.99999784337015         1                        0.5948983359972322       0.6994597053520016       0.5972267552813838
0.6146619862831346        0.8414546717240206       0.4949543967720112       10.000008161114032       1                        0.614661986283135        0.8414546717240204       0.4949543967720111
0.6739016299429299        0.7647722347317747       0.47080197522866335      10.000025067741369       1                        0.6739016299429301       0.7647722347317747       0.4708019752286634
0.895676371022085         0.5540521280320233       0.4461799327473342       10.000025324147758       1                        0.8956763710220844       0.5540521280320232       0.4461799327473343
0.9108370196635213        0.7197750180917494       0.3742681686567398       10.000073158744803       1                        0.9108370196635213       0.7197750180917493       0.3742681686567398
0.9574890065917725        0.660712950839777        0.3747413994357101       10.000016451462532       1                        0.9574890065917726       0.660712950839777        0.3747413994357103
0.914978013183545         0.6382774237546461       0.41736689399437055      10.000117391326373       1                        0.9149780131835453       0.6382774237546462       0.41736689399437077
0.7429467540488826        0.7122937370678066       0.47069653018511065      10.000092494799036       1                        0.7429467540488823       0.7122937370678066       0.47069653018511043
0.7500204361228633        0.543830666827331        0.5128764433384568       10.00002370532142        1                        0.7500204361228633       0.543830666827331        0.5128764433384565
0.7328353583137893        0.6088579260825812       0.4746956940230501       10.000043142246438       1                        0.7328353583137891       0.6088579260825814       0.47469569402304995
0.7115324199617019        0.5429418996153752       0.592714668465405        10.000024945720911       1                        0.7115324199617025       0.5429418996153751       0.5927146684654049
0.6381180654766855        0.5917265346244908       0.6066220767688112       10.000017990692575       1                        0.6381180654766856       0.5917265346244905       0.6066220767688113
0.6814837002283431        0.6794870000845594       0.521687789802478        10.000054545697886       1                        0.6814837002283436       0.6794870000845598       0.5216877898024778
0.6965922661648183        0.6138636546236326       0.55279754408351         10.000061092284978       1                        0.6965922661648184       0.6138636546236323       0.5527975440835102
0.6623467596871588        0.6898463896645396       0.5664952072779373       10.000011744154115       1                        0.6623467596871588       0.6898463896645398       0.5664952072779375
0.7871420718304762        0.5544602407474762       0.5661710082621945       9.999990190105807        1                        0.7871420718304765       0.554460240747476        0.5661710082621946
0.8362507279053851        0.6109170409484352       0.4989728640328625       10.000024065713806       1                        0.8362507279053848       0.6109170409484351       0.49897286403286273
0.8606184235233045        0.6897651501857124       0.45367175455234765      10.000045066391225       1                        0.8606184235233045       0.6897651501857124       0.45367175455234765
0.793226672248298         0.9391356158561792       0.34352111486396164      10.000086855140912       1                        0.7932266722482983       0.9391356158561796       0.3435211148639617
0.8714259393615693        0.9391356158561792       0.340425225241096        10.00008042724209        1                        0.871425939361569        0.939135615856179        0.34042522524109586
0.8297052227343364        0.7810004919494672       0.35465445566334636      10.000101868206496       1                        0.8297052227343364       0.7810004919494669       0.3546544556633465
0.8294544191015827        0.8782712317123583       0.33085045048219197      10.000080986538718       1                        0.8294544191015827       0.8782712317123578       0.3308504504821919
0.7704983585468193        0.7992050346925121       0.4193060952788427       10.000074112885168       1                        0.7704983585468191       0.7992050346925125       0.41930609527884255
0.8155583910350619        0.7444850924391122       0.43648892491559516      10.000070093874996       1                        0.8155583910350616       0.7444850924391122       0.4364889249155953
0.7570395287993628        0.7595350140528894       0.5099360847868815       10.00007837319593        1                        0.7570395287993624       0.7595350140528896       0.5099360847868813
0.7895987409771339        0.6616053890081209       0.4848346971089866       10.000011550310608       1                        0.7895987409771338       0.6616053890081209       0.4848346971089867
0.9380080850223116        0.8394813489654765       0.2988416964054414       10.00002539002626        1                        0.9380080850223113       0.8394813489654765       0.2988416964054413
1                         0.8384949108630648       0.31112855950876184      10.00001618424637        1                        1                        0.8384949108630648       0.31112855950876184
0.9132789359825945        0.8268727397950453       0.3513417194302804       10.000061049707423       1                        0.9132789359825939       0.8268727397950453       0.3513417194302804
0.873092287649113         0.745425612211421        0.48512827174012846      9.999993262551333        1                        0.873092287649113        0.7454256122114207       0.4851282717401285
0.9066960261434975        0.7758496812674304       0.427882356213943        10.000008791180035       1                        0.9066960261434974       0.7758496812674306       0.4278823562139429
1                         0.7592798044215497       0.36657236958279077      10.000024143583671       1                        1                        0.7592798044215496       0.36657236958279077
1                         0.6754855304597461       0.412253553356495        10.000004084452888       1                        1                        0.6754855304597464       0.4122535533564949
0.7624883532058837        0.45324919794773016      0.6804128247007266       9.999959537637567        1                        0.7624883532058838       0.45324919794773016      0.6804128247007264
0.7635016713466465        0.5722942061666177       0.6433479690668609       10.000009537027328       1                        0.763501671346646        0.5722942061666175       0.6433479690668609
0.7872100651752045        0.5212701993477713       0.670385689463373        9.999999797194512        1                        0.7872100651752044       0.5212701993477714       0.670385689463373
1                         0.5928250953227162       0.4562753271442403       9.999987467685557        1                        1                        0.5928250953227162       0.45627532714424024
0.9478381855110425        0.523894832309289        0.4711869175469864       9.999980673513473        1                        0.9478381855110422       0.5238948323092889       0.4711869175469865
0.9140606102823297        0.5401483778096154       0.5037114214551893       10.000016301830808       1                        0.9140606102823302       0.5401483778096152       0.5037114214551893
1                         0.49373753658655467      0.4961939023466386       9.999989167092346        1                        1                        0.4937375365865548       0.49619390234663846
0.8483792292128767        0.5826173605548172       0.5635084519821866       10.00003044233783        1                        0.8483792292128771       0.5826173605548172       0.5635084519821868
0.8463016080989774        0.3573210124193884       0.7289332562098542       9.999997040016284        1                        0.8463016080989771       0.3573210124193887       0.728933256209854
0.8534046693096727        0.4558193462902938       0.6784886480706824       9.999925613708262        1                        0.8534046693096722       0.4558193462902941       0.6784886480706828
0.9324448495425743        0.5262446275872076       0.5612429101630446       10.000019723071404       1                        0.9324448495425737       0.5262446275872074       0.561242910163045
0.8605077305203681        0.5543176801611992       0.6280440399315107       9.999976116608723        1                        0.860507730520368        0.5543176801611994       0.6280440399315109
0.8648896990851488        0.46282308929984717      0.5767408097854901       10.00001723475822        1                        0.8648896990851492       0.4628230892998472       0.5767408097854898
0.8566344641490127        0.5227202249273322       0.5701246308838384       10.000037520604316       1                        0.8566344641490123       0.5227202249273322       0.5701246308838385
0.9324448495425743        0.43458946467361426      0.6258271677687183       9.999973552465793        1                        0.9324448495425737       0.4345894646736142       0.6258271677687186
1                         0.4474982503731718       0.5872542868904596       9.999992659050664        1                        1                        0.44749825037317176      0.5872542868904596
1                         0.4063558400473813       0.6749135257519463       9.99998796993196         1                        1                        0.4063558400473814       0.6749135257519464
0.9267023346548364        0.46465238934536585      0.6929457808808691       9.999997890551239        1                        0.9267023346548365       0.46465238934536585      0.6929457808808691
0.8629707551548762        0.346614921082724        0.8231626716266276       10.000001118892527       1                        0.8629707551548762       0.34661492108272385      0.8231626716266276
0.9231508040494887        0.4048189098681051       0.7391671552839657       9.999960236220568        1                        0.9231508040494882       0.40481890986810504      0.7391671552839655
1                         0.3556918171599935       0.7544332447515644       9.999996797846457        1                        1                        0.3556918171599936       0.7544332447515644
0.8799782535485221        0.25259908168685324      0.8809042426639788       9.999953192909961        1                        0.8799782535485221       0.25259908168685313      0.8809042426639789
0.8989863310258337        0.19745961894568115      0.9402639114955523       9.999946159547381        1                        0.8989863310258336       0.19745961894568118      0.9402639114955524
0.9175886015537345        0.20328777952377736      0.8934387715014154       9.999963154693951        1                        0.9175886015537348       0.20328777952377744      0.8934387715014154
0.9587943007768672        0.20164388976188868      0.9467193857507077       9.999938361049523        1                        0.9587943007768672       0.20164388976188877      0.9467193857507077
1                         0.19999999999999996      1                        9.999895936862497        1                        1                        0.19999999999999996      1
1                         0.3052452899093281       0.8347841740868017       9.99998243870585         1                        1                        0.305245289909328        0.8347841740868014
1                         0.25263456295612374      0.9192606685220366       9.999969017430681        1                        1                        0.25263456295612385      0.9192606685220368
0.9251586775823346        0.3849713399071581       0.8227896515735189       10.000024014626707       1                        0.9251586775823346       0.38497133990715793      0.8227896515735189
0.8503173551646691        0.41623836774518397      0.8121220940638836       9.999978456909322        1                        0.8503173551646693       0.4162383677451838       0.8121220940638839
0.9013953531301317        0.30729062697860676      0.8918636483134819       9.999991803974165        1                        0.9013953531301317       0.3072906269786068       0.8918636483134819
0.8722874362861315        0.2699501635730615       0.9459318241567409       9.999925745736196        1                        0.8722874362861314       0.2699501635730615       0.9459318241567409
0.9220861357100069        0.2635038361396596       1                        9.999911331934692        1                        0.9220861357100069       0.26350383613965966      1
0.3950296622636916        0.6298378348295358       0.8782822655638961       10.000044960869216       1                        0.39502966226369174      0.6298378348295356       0.8782822655638964
0.3833646089551982        0.5960395699639958       0.936914975780534        10.000005819953918       1                        0.3833646089551983       0.5960395699639955       0.9369149757805338
0.5219736029196343        0.5160730926984626       0.8058436843473584       10.000011672735447       1                        0.5219736029196346       0.5160730926984626       0.8058436843473585
0.44741439826715573       0.5105020094727886       0.9320137327862905       10.000040992353481       1                        0.44741439826715584      0.5105020094727882       0.9320137327862906
0.43012728181471105       0.572931334177469        0.9026973776779715       10.000025797556573       1                        0.4301272818147109       0.5729313341774689       0.9026973776779716
0.5580183192472783        0.49627851858328464      0.8640274655725809       9.999999413211562        1                        0.5580183192472782       0.4962785185832848       0.8640274655725809
0.6370711681806643        0.5341019108471211       0.6936116963774365       9.999988230704489        1                        0.6370711681806646       0.5341019108471214       0.6936116963774367
0.5905374896783313        0.5018520982689264       0.7476599031221357       9.999962713661132        1                        0.5905374896783312       0.5018520982689266       0.7476599031221354
0.7210154610407361        0.5867210524052487       0.6622827308560635       9.99993953769153         1                        0.7210154610407359       0.5867210524052487       0.6622827308560632
0.6500250554462089        0.5870972269467392       0.6640272906824456       10.000027766675565       1                        0.6500250554462089       0.5870972269467388       0.6640272906824459
0.47688995467422385       0.5498230983909423       0.8684797795754091       9.999973912127345        1                        0.47688995467422396      0.549823098390942        0.8684797795754092
0.6629789427117535        0.6400925430463572       0.6344428849874547       10.00004414649125        1                        0.6629789427117533       0.6400925430463572       0.6344428849874543
0.8011925602578884        0.2711210749750876       0.912642465287139        9.999957597179742        1                        0.8011925602578884       0.2711210749750875       0.9126424652871387
0.8423679055433098        0.30191038384992913      0.8683697138265423       9.999974172913612        1                        0.8423679055433094       0.30191038384992913      0.8683697138265423
0.6639383001009552        0.3921080946698541       0.9149743018687956       9.999993987221567        1                        0.6639383001009554       0.3921080946698543       0.9149743018687956
0.8027907062602636        0.3619466910010898       0.8644666281049271       9.999999646849277        1                        0.802790706260264        0.3619466910010898       0.8644666281049271
0.7670515849590639        0.33377828131065707      0.9047607512131275       9.999954536688994        1                        0.7670515849590642       0.33377828131065707      0.9047607512131275
0.720264975870551         0.4112956160168748       0.8645830456145553       10.00000271986845        1                        0.7202649758705509       0.4112956160168748       0.8645830456145553
0.7115629855774269        0.3515557674071414       0.8901097486426555       9.999990062785312        1                        0.7115629855774267       0.35155576740714145      0.8901097486426556
0.8384949108630648        0.31112855950876184      1                        9.999913676083247        1                        0.838494910863065        0.31112855950876195      1
0.7986703249141165        0.43005908087848554      0.7326380366612381       9.999970954490895        1                        0.7986703249141165       0.4300590808784856       0.732638036661238
0.7989358018030559        0.4094796373131156       0.8319606938813829       10.00001683083892        1                        0.7989358018030557       0.40947963731311543      0.8319606938813825
0.6998633052740519        0.4791295048473636       0.7150881789130648       10.000001870240562       1                        0.6998633052740516       0.4791295048473638       0.7150881789130648
0.740047744866197         0.4690376079452625       0.7830632638869948       9.999928732977901        1                        0.7400477448661973       0.46903760794526234      0.7830632638869944
0.6699472123778064        0.4976326378022731       0.7982239051614903       9.99998597034683         1                        0.6699472123778064       0.497632637802273        0.7982239051614902
0.5927150397319693        0.5258770708467165       0.8080802287756907       9.999986572642326        1                        0.592715039731969        0.5258770708467165       0.8080802287756904
0.6628441511671112        0.42802392089880986      0.828391469114415        9.999959693394898        1                        0.6628441511671109       0.4280239208988097       0.8283914691144149
0.6479646186516893        0.487892788952517        0.8511107103377414       9.99999179353728         1                        0.6479646186516894       0.4878927889525169       0.8511107103377414
0.7289669661636753        0.47103546462660817      0.8390563425864552       9.999975095344794        1                        0.7289669661636752       0.471035464626608        0.8390563425864551
0.7592798044215497        0.3665723695827912       1                        10.000030084242846       1                        0.7592798044215497       0.36657236958279127      1
0.7116090522612525        0.3793402321263227       0.9574871509343978       10.000004932551505       1                        0.7116090522612525       0.3793402321263227       0.9574871509343978
0.6278346232449137        0.44214962402152513      0.9141957345572075       9.999950612780587        1                        0.6278346232449138       0.4421496240215249       0.9141957345572075
0.675485530459746         0.4122535533564951       1                        9.999973713027806        1                        0.6754855304597459       0.4122535533564952       1
0.7390558552156009        0.5322724778005822       0.7150679041938196       9.999972269378668        1                        0.7390558552156005       0.5322724778005822       0.7150679041938196
0.6451701133657629        0.9404080438492485       0.42496830282470754      10.000084472711597       1                        0.645170113365763        0.9404080438492489       0.42496830282470743
0.702293278818629         0.9534215327271203       0.3663119492266495       10.000060968004727       1                        0.7022932788186291       0.95342153272712         0.36631194922664956
0.7569989253950132        1                        0.35619177924573137      10.000048176225471       1                        0.7569989253950132       1                        0.35619177924573137
0.7667245925977431        0.8484049203001421       0.4096574503243231       10.000100100256295       1                        0.7667245925977432       0.8484049203001416       0.40965745032432294
0.7234217009234176        0.9068430654542405       0.40669622080906026      10.000055137122503       1                        0.7234217009234173       0.9068430654542399       0.40669622080906015
0.779334607148894         0.9534215327271203       0.4052265320586527       10.000070397068038       1                        0.7793346071488938       0.9534215327271199       0.4052265320586528
0.48430562660280974       0.9149854044197944       0.5373703389109353       10.000035161440248       1                        0.4843056266028097       0.9149854044197948       0.5373703389109354
0.6779862678011075        1                        0.40897537875853934      10.000054213032955       1                        0.6779862678011076       1                        0.4089753787585393
0.5975551559373199        1                        0.4508382147152167       10.000024120639567       1                        0.5975551559373199       1                        0.45083821471521657
0.8133920522869951        0.7924195581133109       0.4891923428450952       10.000019390970913       1                        0.8133920522869947       0.7924195581133109       0.48919234284509533
0.6433156781942869        0.9480254670084204       0.4849811730904398       10.000099701698451       1                        0.6433156781942871       0.9480254670084205       0.4849811730904398
0.7112914943593021        0.8174095774355572       0.483957734894339        10.000081138054757       1                        0.7112914943593015       0.8174095774355574       0.48395773489433924
0.6690377994666461        0.7837047887177786       0.525257282591931        10.000062226490414       1                        0.6690377994666465       0.7837047887177787       0.5252572825919307
0.6682890557637068        0.8817866605902198       0.4767569638656607       10.000075452056564       1                        0.6682890557637068       0.8817866605902194       0.4767569638656609
0.6288018973239238        0.8908074754143596       0.5268170799431732       10.00007610016494        1                        0.628801897323924        0.8908074754143592       0.5268170799431732
0.4027780795266501        0.8612208088395887       0.5947139681317376       10.000092464757689       1                        0.4027780795266499       0.8612208088395892       0.5947139681317374
0.4619306878364585        0.8299708088395887       0.578598596664294        10.000056090323572       1                        0.4619306878364586       0.8299708088395891       0.5785985966642943
0.38531461146432966       0.9223932445590877       0.6885662049318174       10.000037719713003       1                        0.3853146114643296       0.922393244559088        0.6885662049318172
0.41201243289111594       0.8373786489788819       0.648310964827285        10.000082548524968       1                        0.41201243289111583      0.837378648978882        0.648310964827285
0.29479758393323047       0.8194426238719834       0.740195481745498        10.000027464190943       1                        0.2947975839332305       0.8194426238719832       0.7401954817454983
0.3330012241439559        0.7509247296387113       0.7506161614385816       10.000012484900513       1                        0.33300122414395594      0.7509247296387115       0.750616161438582
0.3858794259498302        0.7853574560925434       0.706816414692618        10.000008481197197       1                        0.3858794259498304       0.7853574560925434       0.706816414692618
0.3642045837329568        0.8447864891181752       0.7253243753105921       10.000011399637021       1                        0.3642045837329569       0.8447864891181748       0.7253243753105921
0.40731330989475356       0.7364750719707254       0.7699063377032828       9.999970409671363        1                        0.4073133098947536       0.7364750719707257       0.7699063377032828
0.4457857973495175        0.8122089248376742       0.7075323624283066       10.000013536716908       1                        0.44578579734951745      0.8122089248376744       0.7075323624283066
0.36328614909306794       0.7677730000824309       0.8232340475181299       9.999951017207014        1                        0.36328614909306806      0.7677730000824305       0.8232340475181297
0.29383096603481174       0.8331954331321437       0.8262031976065456       10.000022979055144       1                        0.2938309660348119       0.8331954331321435       0.8262031976065457
0.3333462268561262        0.8862412360707752       0.7717143803179947       10.000033347699905       1                        0.33334622685612625      0.8862412360707751       0.771714380317995
0.4453651328992561        0.9574927022098971       0.594589186731989        10.000015375875586       1                        0.44536513289925606      0.9574927022098974       0.594589186731989
0.5367064501703682        0.9375                   0.5137457684405632       10.000046931689113       1                        0.5367064501703679       0.9375                   0.513745768440563
0.506680565369161         1                        0.49614208115757663      10.000045866009401       1                        0.5066805653691608       1                        0.4961420811575766
0.62678410457399          0.7499999999999999       0.566556830289523        9.999999141392141        1                        0.6267841045739896       0.7499999999999999       0.5665568302895229
0.5697760255866602        0.7522391476026908       0.6217744611429227       10.000005809733842       1                        0.5697760255866603       0.7522391476026905       0.6217744611429228
0.5125713682476086        0.7081141923535772       0.6843108262362224       10.000068223787288       1                        0.5125713682476085       0.708114192353577        0.6843108262362224
0.5629191818056337        0.5683201028800298       0.7565645311277923       10.000042594559945       1                        0.5629191818056339       0.5683201028800298       0.7565645311277924
0.5157155483486295        0.5735181732797667       0.8082489859637614       10.000011158036532       1                        0.5157155483486294       0.573518173279767        0.8082489859637613
0.581042489253463         0.6923940537455665       0.6660129947114858       10.00003404403154        1                        0.5810424892534628       0.6923940537455665       0.6660129947114857
0.6290463814209825        0.6298177042256514       0.7170346679600257       10.000009611489995       1                        0.6290463814209823       0.6298177042256513       0.7170346679600254
0.5348575249984701        0.5030492127675914       0.9342398897877046       9.99999988778796         1                        0.5348575249984701       0.5030492127675911       0.9342398897877046
0.5928250953227162        0.45627532714424035      1                        9.999949390574596        1                        0.5928250953227162       0.45627532714424035      1
0.49373753658655467       0.49619390234663846      1                        9.999992882987785        1                        0.4937375365865548       0.49619390234663835      1
0.6083055351048254        0.7461586493257721       0.6569270871829546       10.000062695514846       1                        0.6083055351048257       0.7461586493257718       0.6569270871829543
0.47713600008201124       0.6261968412896722       0.8149866378073247       10.000037113178916       1                        0.4771360000820112       0.6261968412896723       0.8149866378073248
0.43855645181539293       0.6788755092995777       0.8217242896508881       10.000012709653692       1                        0.438556451815393        0.678875509299578        0.8217242896508881
0.5255044872153183        0.6967802206928705       0.74190495802605         10.000032853336164       1                        0.5255044872153184       0.6967802206928705       0.7419049580260498
0.535300873932936         0.6347881074911331       0.7654691591334487       9.999999489643914        1                        0.535300873932936        0.6347881074911329       0.7654691591334489
0.5772754343181504        0.663298962459261        0.7294698129930378       10.000003307532205       1                        0.5772754343181502       0.6632989624592612       0.729469812993038
0.5273670109660783        0.7796313605571731       0.689740349546021        9.999991561984336        1                        0.5273670109660781       0.7796313605571729       0.689740349546021
0.5044962033058148        0.7508283874299564       0.7394684317570025       10.00002748895327        1                        0.5044962033058146       0.7508283874299567       0.7394684317570023
0.48162539564555124       0.7220254143027396       0.789196513967984        10.000042395912164       1                        0.48162539564555124      0.7220254143027395       0.7891965139679836
0.4204517711202125        0.7687425709156772       0.867306161946708        9.999983891525396        1                        0.4204517711202127       0.7687425709156771       0.8673061619467078
0.40069275115553643       0.6523756802907409       0.9391411327819481       10.000023358466281       1                        0.4006927511555365       0.6523756802907407       0.9391411327819482
0.4456400640551856        0.7117966937686083       0.8750203707567161       10.00001734802584        1                        0.44564006405518536      0.7117966937686083       0.8750203707567157
0.4474982503731718        0.5872542868904594       1                        10.000017761416922       1                        0.4474982503731717       0.5872542868904594       1
0.4792210925981863        1                        0.5948346112621666       10.000049298394874       1                        0.4792210925981861       1                        0.5948346112621666
0.379817506665506         0.9174264981398575       0.7476764689648803       9.999985622468323        1                        0.379817506665506        0.9174264981398574       0.74767646896488
0.4366602321382964        0.9449078401392933       0.6612911133012872       10.000017871104518       1                        0.43666023213829624      0.9449078401392935       0.6612911133012871
0.4064246391957025        1                        0.6518080345530427       9.99999954187616         1                        0.4064246391957024       1                        0.6518080345530427
0.40635584004738123       0.6749135257519461       1                        9.999971400117252        1                        0.4063558400473814       0.6749135257519461       1
0.4129536248822586        0.7282224207170082       0.9216884550908968       10.000024327285699       1                        0.41295362488225845      0.728222420717008        0.9216884550908969
0.2933761326970115        0.8363718035890562       0.9294739938892057       10.000032711416788       1                        0.2933761326970117       0.8363718035890563       0.9294739938892059
0.34175912774392414       0.81221793705967         0.8808579943983401       10.000024197991527       1                        0.34175912774392425      0.8122179370596699       0.8808579943983402
0.4078914236255077        0.8107361302576903       0.9133302809226002       10.00001294458003        1                        0.40789142362550745      0.8107361302576908       0.9133302809226007
0.3487254724519588        0.7833255909056172       0.9404289971991701       9.999994803649779        1                        0.3487254724519586       0.7833255909056173       0.9404289971991701
0.3556918171599935        0.7544332447515641       1                        9.999979443689488        1                        0.35569181715999354      0.7544332447515641       1
0.28038126992321605       0.8890937038767672       0.8424065254817199       10.000008676670255       1                        0.28038126992321616      0.8890937038767673       0.8424065254817203
0.3506136950124342        0.8797275924604953       0.8889390229537476       9.99999573631258         1                        0.3506136950124343       0.8797275924604955       0.8889390229537476
0.32397828151355196       0.9431206180353876       0.804196268773884        9.999995695725866        1                        0.3239782815135521       0.943120618035387        0.8041962687738836
0.3708272522251188        1                        0.7509003495106313       9.999985118272027        1                        0.3708272522251189       1                        0.7509003495106316
0.3052452899093279        0.8347841740868017       1                        9.999965587042967        1                        0.3052452899093279       0.8347841740868015       1
0.26377923228643657       0.951621447730042        0.8616769159094183       10.000007901600236       1                        0.2637792322864367       0.9516214477300416       0.861676915909418
0.3146103361709777        1                        0.8366781572297731       10.000041755868526       1                        0.3146103361709777       1                        0.836678157229773
0.3099278130401528        0.9173920870434009       0.9183390786148866       9.999994759817655        1                        0.30992781304015266      0.9173920870434009       0.9183390786148865
0.25263456295612385       0.9192606685220366       1                        9.999981128219092        1                        0.2526345629561239       0.9192606685220368       1
0.26290736972184564       1                        0.9189657759295615       10.000007766941781       1                        0.2629073697218457       1                        0.9189657759295612
0.2                       1                        1                        10.000026618541531       1                        0.19999999999999998      1                        1
0.5585095619198573        0.8120842414598151       0.5775359275743596       10.000030454219882       1                        0.5585095619198573       0.8120842414598146       0.5775359275743596
0.5667323349715755        0.875                    0.5313494557235499       10.000070155666483       1                        0.5667323349715757       0.875                    0.53134945572355
0.5067248884771699        0.8858672301026882       0.6130838924122693       10.00008187763652        1                        0.5067248884771698       0.8858672301026886       0.6130838924122696
0.5170459497216241        0.8327492953299307       0.6514121209791451       10.000052157314032       1                        0.517045949721624        0.8327492953299305       0.6514121209791454
0.8352475133743703        1                        0.40375684330824513      10.000080758048995       1                        0.8352475133743701       1                        0.4037568433082451
0.8749873614625808        0.9479171728334785       0.3970910342746706       10.000078924358913       1                        0.8749873614625812       0.9479171728334781       0.3970910342746707
0.913397459621556         1                        0.35000000000000003      10.000058712268224       1                        0.9133974596215562       1                        0.34999999999999987
1                         1                        0.29999999999999993      10.000111492957192       1                        1                        1                        0.2999999999999999
0.9147272095507913        0.8958343456669572       0.390425225241096        10.000032820395727       1                        0.9147272095507912       0.8958343456669575       0.3904252252410958
1                         0.9186879515525865       0.356951318727556        10.000046049188775       1                        1                        0.9186879515525864       0.356951318727556
0.9140623345861737        0.9479171728334785       0.420212612620548        10.000047814660988       1                        0.9140623345861735       0.9479171728334781       0.4202126126205481
0.6529932485900881        0.6981605459647537       0.6508669140528112       10.000007290820925       1                        0.6529932485900881       0.6981605459647539       0.6508669140528113
0.6549298331465137        0.8293523943588893       0.5531970511132769       10.000020146241331       1                        0.6549298331465142       0.829352394358889        0.5531970511132767
0.705937239015703         0.6335048229914023       0.6962067205550642       9.999988050251309        1                        0.7059372390157033       0.633504822991402        0.6962067205550645
0.7711323035498427        0.8067762910379721       0.5491756393886523       10.000054698748652       1                        0.7711323035498424       0.8067762910379721       0.5491756393886523
0.7046728729665138        0.7330125162277671       0.5603113651360295       10.000027446640216       1                        0.704672872966514        0.7330125162277669       0.5603113651360299
0.6778283296933402        0.7855665119813167       0.5878578831108662       10.000046556005055       1                        0.6778283296933405       0.7855665119813168       0.587857883110866
0.9181253639526925        0.6002916034115017       0.5223589372867308       10.000016539103317       1                        0.9181253639526926       0.600291603411502        0.5223589372867307
0.9303092117616523        0.7210018348166206       0.45587526235328396      10.000022558524059       1                        0.9303092117616526       0.7210018348166206       0.45587526235328407
0.9242172878571724        0.6606467191140611       0.48911709982000734      10.000024098206676       1                        0.9242172878571719       0.660646719114061        0.4891170998200074
0.7249440079267132        0.703927038183941        0.6357208333941365       9.999972232776189        1                        0.7249440079267129       0.7039270381839411       0.6357208333941368
0.7825616413590377        0.7160250324555343       0.554065899982536        10.000035087906129       1                        0.782561641359038        0.716025032455534        0.554065899982536
0.7646960092476112        0.6424618009967926       0.5505724728896677       9.999998824700391        1                        0.7646960092476113       0.6424618009967927       0.5505724728896677
0.7397932775180883        0.6233182129854643       0.6163102486703488       10.000015932059517       1                        0.7397932775180887       0.6233182129854646       0.6163102486703488
0.7222330752423011        0.6781653646066157       0.5883108069031892       10.00003378106949        1                        0.722233075242301        0.6781653646066155       0.5883108069031893
0.8215346859397029        0.6351713563083666       0.5910549699570233       10.000003042621833       1                        0.8215346859397029       0.635171356308367        0.591054969957023
0.8698300249461978        0.6392089543698329       0.5461967501211905       10.000028302522473       1                        0.8698300249461975       0.6392089543698329       0.5461967501211903
0.8912808206795189        0.6958005481848487       0.5288850482601946       10.000024099194984       1                        0.8912808206795189       0.6958005481848487       0.5288850482601947
0.8464245875279292        0.8872405053845069       0.42522331095236976      10.000066340193653       1                        0.8464245875279286       0.8872405053845075       0.42522331095236987
0.7718667586917378        0.8508311592898646       0.4745114084793159       10.000056394976445       1                        0.7718667586917375       0.8508311592898644       0.4745114084793159
0.8353225196048378        0.8238326223222778       0.4364055511816727       10.000057253388405       1                        0.8353225196048373       0.8238326223222783       0.43640555118167274
0.8340638965669795        0.758555553346332        0.5353253444552226       10.000045625772657       1                        0.83406389656698         0.7585555533463323       0.5353253444552224
0.8524410037245467        0.6988222399835723       0.5750777029867667       10.000056420220355       1                        0.8524410037245467       0.6988222399835723       0.5750777029867665
0.8855661517749214        0.8010860742371297       0.5165847889279093       9.999996053956274        1                        0.885566151774921        0.8010860742371297       0.5165847889279094
1                         0.8348391162266218       0.41182785540066746      9.999969942777518        1                        1                        0.8348391162266218       0.4118278554006674
0.9001466806628564        0.8484602099520434       0.45350500708450264      10.000058033940096       1                        0.9001466806628567       0.8484602099520432       0.45350500708450275
0.9365461438245565        0.7686504135803489       0.5074377052465047       9.999997805026767        1                        0.9365461438245565       0.7686504135803491       0.5074377052465043
0.9068500289310284        0.7549191870161496       0.5585174777722531       10.000005587980384       1                        0.9068500289310285       0.7549191870161495       0.5585174777722534
1                         0.752238519447529        0.4580787701542203       9.999985695494457        1                        1                        0.7522385194475288       0.45807877015422027
1                         0.6755760639141632       0.503704196537853        9.999969252892809        1                        1                        0.6755760639141635       0.5037041965378533
0.8424222187973937        0.5221966193429588       0.7190201208353852       9.999960750399483        1                        0.8424222187973942       0.5221966193429585       0.7190201208353849
0.7828280966104237        0.6371919417571531       0.6753787731501026       9.999992232822734        1                        0.7828280966104235       0.6371919417571533       0.6753787731501025
0.77824840515715          0.5854154507538009       0.7150476294745746       9.99998247474664         1                        0.77824840515715         0.5854154507538011       0.7150476294745745
0.819378067838759         0.5698665654575          0.6715458347030426       9.999940056626711        1                        0.819378067838759        0.5698665654574999       0.6715458347030426
0.8467977197901376        0.6259369267296614       0.6483577134511568       10.00000791615421        1                        0.8467977197901374       0.6259369267296614       0.6483577134511568
1                         0.5896661658745681       0.545745010540599        9.99999731557458         1                        1                        0.5896661658745683       0.5457450105405989
0.9553836714849258        0.5682981098096597       0.6075710013795843       9.999982715115992        1                        0.9553836714849255       0.5682981098096598       0.6075710013795844
1                         0.5219143079171497       0.5938053490069578       9.999984021407682        1                        1                        0.5219143079171495       0.5938053490069579
0.9107673429698515        0.6146819117021697       0.6213366537522108       10.000042188259815       1                        0.9107673429698515       0.6146819117021693       0.6213366537522108
0.9505120409123426        0.627007362599593        0.5844245666907213       9.999972318950421        1                        0.9505120409123431       0.6270073625995932       0.5844245666907213
0.8463697869810314        0.4692174935440714       0.7655711074496344       9.999961684040805        1                        0.8463697869810315       0.46921749354407166      0.7655711074496344
0.9042008576947171        0.568902475520158        0.6944956029798041       9.999965722066051        1                        0.9042008576947174       0.568902475520158        0.694495602979804
0.930253865260184         0.5244858688226266       0.6467244064777725       9.99993004107071         1                        0.930253865260184        0.5244858688226266       0.6467244064777726
1                         0.49465405748405405      0.6654047730240343       10.000010707340289       1                        1                        0.49465405748405394      0.6654047730240344
0.8503514446056961        0.47218660830752546      0.8304410196837736       9.999992950326703        1                        0.8503514446056961       0.47218660830752573      0.8304410196837736
0.9177756329084352        0.4613346801524616       0.787585764636266        10.000010069306452       1                        0.9177756329084353       0.4613346801524615       0.7875857646362657
1                         0.4523168073168218       0.7494010543580774       10.000005702036034       1                        1                        0.4523168073168219       0.7494010543580775
0.8976343724195829        0.5231230393381464       0.7676545522073976       9.99999440813908         1                        0.8976343724195825       0.5231230393381465       0.7676545522073976
0.9488171862097914        0.4877199233274841       0.7585278032827375       10.000037020193956       1                        0.948817186209791        0.4877199233274841       0.7585278032827373
0.8729907311793116        0.41277340092541837      0.8979769510255866       10.000039360374897       1                        0.8729907311793115       0.4127734009254186       0.897976951025587
1                         0.4021633342289362       0.8321302440795068       9.999972669287954        1                        1                        0.40216333422893613      0.8321302440795066
0.9506976765650659        0.30364531348930335      0.9459318241567409       9.999958468320228        1                        0.9506976765650662       0.30364531348930335      0.9459318241567409
0.9506976765650659        0.3786453134893034       0.902630553967519        10.000011347523142       1                        0.950697676565066        0.37864531348930347      0.9026305539675191
1                         0.29999999999999993      1                        9.999960633112826        1                        1                        0.2999999999999999       1
1                         0.35000000000000003      0.913397459621556        9.99991909561549         1                        1                        0.35000000000000003      0.9133974596215559
0.9271665511151804        0.43865952864995783      0.8637205879987098       10.000009356155754       1                        0.9271665511151805       0.4386595286499578       0.8637205879987099
0.8681172346783768        0.3595592411896373       0.9459318241567409       9.99993552406299         1                        0.8681172346783764       0.35955924118963717      0.9459318241567409
0.9186879515525863        0.356951318727556        1                        9.999923970247028        1                        0.9186879515525863       0.356951318727556        1
0.4708283569901587        0.6548508166215395       0.8827345795667243       10.000008138387342       1                        0.4708283569901588       0.6548508166215398       0.8827345795667241
0.45916330368166525       0.6210525517559995       0.9413672897833621       10.000030006323218       1                        0.4591633036816651       0.6210525517559996       0.9413672897833617
0.5401798675518694        0.5571089462567421       0.9015389792965458       10.000053048442883       1                        0.5401798675518693       0.5571089462567419       0.9015389792965461
0.4994021312956867        0.5718142236989501       0.9342398897877046       10.00000851496125        1                        0.49940213129568695      0.5718142236989503       0.9342398897877046
0.6061744471362469        0.5110057226776615       0.9004712206765575       9.999951379210742        1                        0.6061744471362471       0.5110057226776614       0.9004712206765575
0.6770502735885019        0.5672413547057364       0.7680563412085657       9.999999070549254        1                        0.6770502735885021       0.5672413547057361       0.7680563412085659
0.6112762418468852        0.5892050172258146       0.8184472050069764       9.999980345107714        1                        0.6112762418468853       0.5892050172258148       0.8184472050069762
0.5455022101052688        0.6111686797458928       0.8688380688053869       9.999980442443722        1                        0.545502210105269        0.6111686797458927       0.868838068805387
0.6841811308369542        0.6916564676281735       0.7058832589773283       10.000013543131187       1                        0.6841811308369542       0.6916564676281731       0.7058832589773284
0.70754133530732          0.44305134552651515      0.9141957345572075       9.999983632043982        1                        0.7075413353073199       0.44305134552651504      0.9141957345572075
0.8188149112434427        0.3868872732008788       0.9322333140524636       10.000008275582251       1                        0.818814911243443        0.3868872732008786       0.9322333140524638
0.7879867199495443        0.4444382914509432       0.8798887800114199       10.000025648729087       1                        0.7879867199495441       0.4444382914509432       0.87988878001142
0.7497978861053983        0.41188926178863294      0.9186879654729089       9.99999865206718         1                        0.7497978861053981       0.41188926178863294      0.9186879654729088
0.8348391162266218        0.4118278554006678       1                        9.99997049537881         1                        0.8348391162266218       0.41182785540066796      1
0.7952687448391658        0.500311446141959        0.7906218638358256       9.99997326280106         1                        0.795268744839166        0.500311446141959        0.7906218638358253
0.8222803853785668        0.5498699354188542       0.7633812938313081       10.000009082981906       1                        0.822280385378567        0.5498699354188544       0.7633812938313084
0.7361595092138337        0.5337764004238477       0.7793391025221956       9.999989835992865        1                        0.736159509213834        0.5337764004238477       0.7793391025221955
0.7251165036136633        0.5470856233032665       0.8316836365632393       9.999981858524253        1                        0.7251165036136631       0.5470856233032664       0.8316836365632391
0.8543331022303609        0.47515572307097953      0.8953109319179128       10.00006273169667        1                        0.8543331022303607       0.4751557230709798       0.8953109319179123
0.6330850861362676        0.5477616570062241       0.8738299515610679       9.999981310536649        1                        0.6330850861362676       0.5477616570062245       0.8738299515610674
0.6916487705944454        0.49838419569932335      0.8879856591834946       10.000056949522822       1                        0.6916487705944457       0.4983841956993232       0.8879856591834947
0.7731827336388248        0.5269298919007965       0.8953109319179128       9.999928222007632        1                        0.7731827336388251       0.5269298919007963       0.8953109319179122
0.7522385194475291        0.45807877015422044      1                        9.999966898138453        1                        0.7522385194475288       0.4580787701542206       1
0.724379398776494         0.5153170442193248       0.9476554659589564       10.000016655494939       1                        0.7243793987764939       0.5153170442193248       0.9476554659589562
0.6543305750252155        0.5257329267720385       0.936914975780534        9.999953451832406        1                        0.6543305750252154       0.5257329267720384       0.9369149757805338
0.6755760639141635        0.5037041965378529       1                        9.999995291425995        1                        0.6755760639141634       0.5037041965378528       1
0.7527231271764646        0.591668551291839        0.7695243360039858       9.999984304253061        1                        0.7527231271764648       0.591668551291839        0.769524336003986
0.7023637239683117        0.627197617531102        0.7630272474727688       9.999982485986571        1                        0.7023637239683116       0.6271976175311024       0.7630272474727687
0.6983791958005764        0.9534215327271203       0.45403089462891366      10.000004473971314       1                        0.6983791958005766       0.95342153272712         0.4540308946289137
0.7531329679409214        1                        0.4546359077616519       10.00003568158903        1                        0.7531329679409212       1                        0.45463590776165197
0.8366097533855207        0.9436202526922535       0.4626116554761849       10.000073848489112       1                        0.8366097533855205       0.9436202526922532       0.4626116554761848
0.7624998633163297        0.9254155796449324       0.4645736581204839       10.000071330973125       1                        0.7624998633163299       0.9254155796449327       0.46457365812048396
0.5441127696441247        0.9396318256828939       0.5806574783004039       10.000011253718693       1                        0.5441127696441247       0.9396318256828944       0.580657478300404
0.6107959820251739        0.9375                   0.563533132351636        10.000030899720878       1                        0.6107959820251737       0.9375                   0.5635331323516363
0.6733366906777352        1                        0.501365568448767        10.00005420001802        1                        0.6733366906777353       1                        0.501365568448767
0.6008621423123865        1                        0.5256417995666418       9.999992470167037        1                        0.6008621423123865       1                        0.5256417995666417
0.8172635297520592        0.8514930350473138       0.5343859054055999       10.00002427982195        1                        0.8172635297520594       0.8514930350473138       0.5343859054055998
0.6830755617190373        0.9087047887177786       0.5398372719370307       10.00007670937266        1                        0.6830755617190375       0.9087047887177785       0.539837271937031
0.72710393263444          0.8577405398778754       0.5445064556628415       10.000030785750937       1                        0.72710393263444         0.8577405398778749       0.5445064556628414
0.6443091289370089        0.8855640168118782       0.5850373821542337       10.000031415932161       1                        0.6443091289370086       0.8855640168118784       0.5850373821542336
0.7732351588366564        0.902457283887217        0.5297167216797891       10.00002750189973        1                        0.7732351588366561       0.9024572838872172       0.5297167216797891
0.4668958250808904        0.8898156802785866       0.6707741920495319       9.999998846233325        1                        0.4668958250808904       0.8898156802785867       0.6707741920495317
0.4262887864748858        0.9486117602089399       0.723638557611766        10.000038486064577       1                        0.4262887864748858       0.9486117602089404       0.723638557611766
0.49745119005843647       0.8478681137846248       0.7071281217538727       10.000035748636332       1                        0.4974511900584365       0.8478681137846247       0.7071281217538724
0.42844752655634355       0.8747089248376742       0.7542673225490166       10.00002431126215        1                        0.4284475265563436       0.874708924837674        0.7542673225490165
0.3529818557384405        0.8285022130889226       0.8030911848544662       10.000026081069795       1                        0.3529818557384405       0.8285022130889222       0.8030911848544662
0.42794991735816645       0.8092627211143462       0.8129238688025191       10.000030504162819       1                        0.4279499173581663       0.8092627211143462       0.8129238688025188
0.4871394135869037        0.8204936387762525       0.7709553541945439       10.000048613063987       1                        0.4871394135869038       0.8204936387762524       0.7709553541945442
0.3912995769847156        0.8420630978775896       0.8595389672926086       9.99998485914394         1                        0.3912995769847158       0.8420630978775899       0.8595389672926088
0.37128012676457206       0.9046313605571731       0.8248010130161462       9.999989725352224        1                        0.371280126764572        0.9046313605571729       0.8248010130161457
0.5515190891178813        0.9417636513657878       0.6475691881602447       10.000045560238247       1                        0.5515190891178814       0.9417636513657873       0.647569188160245
0.5539215954684071        1                        0.5884144952410506       10.000006659006075       1                        0.553921595468407        1                        0.5884144952410504
0.6355685809561878        0.7999232449059779       0.6478411796544233       10.00006155651321        1                        0.6355685809561876       0.7999232449059775       0.647841179654423
0.576307265338906         0.8163362701179543       0.6496266503167842       10.000002362594632       1                        0.5763072653389061       0.8163362701179543       0.6496266503167843
0.5878437193859268        0.7287425706752043       0.7209830906670851       10.000019356627666       1                        0.5878437193859266       0.7287425706752041       0.720983090667085
0.7396494032250007        0.7036920249303186       0.6979637851246296       10.000000718145902       1                        0.7396494032250007       0.7036920249303189       0.6979637851246296
0.6624250226582052        0.7498081122649446       0.7155597973995924       10.000050776188324       1                        0.662425022658205        0.7498081122649443       0.7155597973995924
0.5983648359248861        0.65003210709457         0.8023423347816746       9.999966835903102        1                        0.5983648359248863       0.6500321070945705       0.8023423347816742
0.6332784493391865        0.6814959710415862       0.7563741140688998       9.999947056310537        1                        0.6332784493391869       0.6814959710415865       0.7563741140688997
0.650278853103554         0.644448998424863        0.800862810075869        10.000002987573206       1                        0.650278853103554        0.6444489984248631       0.8008628100758693
0.6892814643602226        0.6996929796239114       0.7832784151447616       10.000051980904828       1                        0.6892814643602226       0.6996929796239114       0.7832784151447618
0.5896661658745679        0.5457450105405989       1                        9.999995570355324        1                        0.5896661658745679       0.5457450105405989       1
0.5219143079171497        0.5938053490069578       1                        10.000029995981926       1                        0.5219143079171495       0.5938053490069579       1
0.5491165827673554        0.8835273027315755       0.7067238810794388       10.000047281646044       1                        0.5491165827673558       0.8835273027315756       0.7067238810794386
0.5984120044537034        0.7941861788911478       0.7124963683411324       10.000047136150767       1                        0.598412004453703        0.7941861788911475       0.7124963683411321
0.5281408934965228        0.6828550067924325       0.8344860220615485       9.999977167039088        1                        0.528140893496523        0.6828550067924329       0.8344860220615483
0.585453430002887         0.7108591969633256       0.7862374645563728       9.999988386284754        1                        0.5854534300028874       0.7108591969633256       0.7862374645563722
0.561255427951219         0.7884491128763178       0.7771515570278416       10.000037546370821       1                        0.5612554279512186       0.7884491128763179       0.777151557027842
0.5222674611474893        0.7752141587318798       0.832160707129032        9.999997577380125        1                        0.5222674611474893       0.7752141587318798       0.8321607071290321
0.4580912014087866        0.8189250817345106       0.8794556484202143       10.000018393159962       1                        0.4580912014087867       0.8189250817345105       0.8794556484202143
0.4832794943437597        0.7619792045874418       0.8871698572302225       9.99999773686517         1                        0.48327949434376         0.7619792045874421       0.8871698572302227
0.4889667759139069        0.7136919888057379       0.9435849286151112       10.000017239217945       1                        0.4889667759139069       0.713691988805738        0.9435849286151109
0.4946540574840541        0.6654047730240342       1                        10.000021837460078       1                        0.494654057484054        0.6654047730240343       1
0.5089879254318227        1                        0.6709594313813274       10.000049006540461       1                        0.5089879254318228       1                        0.6709594313813272
0.4159173408114751        0.9523156802785866       0.7859860019222449       10.000046224085088       1                        0.4159173408114752       0.9523156802785867       0.785986001922245
0.5008391974057764        0.9523156802785866       0.7270848505843842       10.000041405054782       1                        0.5008391974057763       0.9523156802785866       0.7270848505843843
0.5613640256166217        0.9386194625922822       0.7145669682704945       10.000041981602834       1                        0.5613640256166216       0.938619462592282        0.7145669682704945
0.4605545548583781        1                        0.7471709908283435       10.000016686912181       1                        0.4605545548583781       1                        0.7471709908283435
0.45231680731682167       0.7494010543580774       1                        10.000007332486794       1                        0.4523168073168217       0.7494010543580776       1
0.4910251441793755        0.7977815145684783       0.9435849286151112       10.000000331221413       1                        0.4910251441793753       0.7977815145684785       0.9435849286151109
0.40282922236875685       0.8932498397983725       0.9049721067543036       9.999983330548648        1                        0.40282922236875685      0.8932498397983722       0.9049721067543038
0.35403725613904236       0.8640170069425871       0.9524860533771518       9.999968682076203        1                        0.35403725613904236      0.8640170069425871       0.9524860533771515
0.45080000819187405       0.8634168321739437       0.9524860533771518       10.000028734445792       1                        0.45080000819187405      0.8634168321739435       0.9524860533771518
0.4021633342289362        0.8321302440795068       1                        10.000023181220056       1                        0.4021633342289362       0.8321302440795068       1
0.36384166045081784       0.9523156802785866       0.8711131736610546       10.000048794640925       1                        0.3638416604508178       0.9523156802785869       0.8711131736610546
0.4117296384883348        1                        0.8354268882487496       10.00000293013695        1                        0.4117296384883347       1                        0.8354268882487493
0.35000000000000014       0.913397459621556        1                        9.999975693969015        1                        0.35000000000000026      0.9133974596215563       1
0.3564031941370637        1                        0.917425334305963        10.000028249157676       1                        0.3564031941370637       1                        0.9174253343059627
0.30000000000000004       0.9999999999999998       0.9999999999999998       9.999998390306493        1                        0.30000000000000004      0.9999999999999999       0.9999999999999999
0.7288725548126903        0.8211330239626333       0.6091589359322095       10.0000347323798         1                        0.7288725548126904       0.8211330239626338       0.6091589359322093
0.6055426961549805        0.8624232449059779       0.6302374923714368       10.000031208918248       1                        0.6055426961549805       0.8624232449059772       0.6302374923714367
0.8267949192431122        1                        0.5                      10.000020520391786       1                        0.8267949192431119       1                        0.5
0.913397459621556         1                        0.45                     9.999975957020498        1                        0.9133974596215563       1                        0.4500000000000001
1                         1                        0.39999999999999997      10.000027996271811       1                        1                        1                        0.39999999999999997
0.9316973779771378        0.9048036193391058       0.48479808571127375      10.000040169027448       1                        0.9316973779771375       0.9048036193391057       0.484798085711274
1                         0.913397459621556        0.45                     10.000054833330642       1                        1                        0.9133974596215562       0.4500000000000001
0.907810945233465         0.9286027145043293       0.5372602488326185       10.000026628852241       1                        0.9078109452334648       0.9286027145043294       0.5372602488326185
0.6956487887354478        0.785470568113789        0.6623593666659009       9.999995745992932        1                        0.6956487887354474       0.7854705681137886       0.662359366665901
0.687746158277733         0.8552448784436473       0.6625926935185905       9.999994491180528        1                        0.687746158277733        0.855244878443647        0.6625926935185903
0.7692867451390955        0.6495607021598304       0.7597095694857762       10.000013856892531       1                        0.7692867451390949       0.6495607021598303       0.7597095694857761
0.8023362401009362        0.8422743188631389       0.603924141258879        9.999961172395947        1                        0.8023362401009365       0.8422743188631389       0.6039241412588792
0.8030132344250953        0.7811604922072917       0.6093780931151055       10.000004407832478       1                        0.8030132344250949       0.7811604922072917       0.6093780931151058
0.7563964558471653        0.756001905525064        0.6437716644353367       10.000031022703327       1                        0.7563964558471651       0.7560019055250641       0.6437716644353366
0.7878489037676173        0.808076772866187        0.651822495476537        9.999990657402344        1                        0.7878489037676174       0.808076772866187        0.6518224954765371
0.9456404103397594        0.6857166153895263       0.5612781320018584       9.99999557660355         1                        0.9456404103397594       0.6857166153895267       0.5612781320018582
0.8136011867695745        0.7018439317822959       0.6212703577133389       10.000003803774367       1                        0.8136011867695744       0.7018439317822959       0.6212703577133389
0.8939606285036759        0.6779349360770598       0.6154669520251062       10.000028728305557       1                        0.8939606285036764       0.6779349360770595       0.6154669520251058
0.8633947559542756        0.8962097790566554       0.5195961714225475       10.00005715020893        1                        0.8633947559542751       0.8962097790566548       0.5195961714225474
0.8644362774063452        0.826322467206829        0.6052872216418755       10.000027154050098       1                        0.8644362774063448       0.826322467206829        0.6052872216418754
0.8771539140375002        0.74118796045195         0.6095972502980015       9.999995930184598        1                        0.8771539140375          0.7411879604519497       0.6095972502980016
0.9427830758874607        0.8162989923440771       0.5590001481397254       10.000034480274838       1                        0.942783075887461        0.816298992344077        0.5590001481397254
1                         0.834402602123987        0.5049312031836676       10.000017250930021       1                        1                        0.834402602123987        0.5049312031836675
0.7733615674342984        0.7738792268692349       0.699720849694195        10.000000137637494       1                        0.7733615674342985       0.7738792268692349       0.699720849694195
0.9406800164531054        0.763006277041236        0.6011691112276054       10.00007992189335        1                        0.9406800164531054       0.7630062770412357       0.6011691112276054
1                         0.7510967224384839       0.5535483376596342       10.000038482118148       1                        1                        0.7510967224384839       0.5535483376596344
1                         0.6756326825942038       0.5936712157435222       9.99996650483308         1                        1                        0.6756326825942037       0.5936712157435222
0.8446407321801114        0.6876628311090577       0.6884748154441418       9.999985222475145        1                        0.8446407321801115       0.687662831109058        0.6884748154441418
0.8144082245427957        0.7235037891663733       0.7277285265612305       10.000024126183082       1                        0.8144082245427955       0.7235037891663736       0.7277285265612308
0.849292025917968         0.5994284246957494       0.7361407238267907       9.99999404913266         1                        0.8492920259179683       0.5994284246957496       0.7361407238267906
0.855454881651293         0.6731283514635116       0.7557362034282662       9.999989535605453        1                        0.8554548816512929       0.6731283514635114       0.7557362034282664
0.8301783533470675        0.5972045523245769       0.8038093507766896       9.999998071210706        1                        0.8301783533470674       0.5972045523245769       0.8038093507766892
0.9132606118923864        0.6426177494650499       0.7072232509390622       10.000009651799967       1                        0.9132606118923866       0.6426177494650497       0.7072232509390622
1                         0.5941924670959726       0.6516183375473983       10.000016658321707       1                        1                        0.5941924670959724       0.6516183375473984
0.9553836714849258        0.6464605373635046       0.64920777604259         10.000016697852267       1                        0.9553836714849255       0.6464605373635044       0.6492077760425902
0.9310388990510889        0.6001119616752416       0.7546252445916304       9.999953855626426        1                        0.9310388990510888       0.6001119616752415       0.7546252445916302
0.8571534527484749        0.5487905153785544       0.8347196487538195       10.000004091070057       1                        0.8571534527484745       0.5487905153785544       0.8347196487538194
0.8940961758997819        0.574451238526898        0.794672446672725        10.000028033709478       1                        0.8940961758997816       0.5744512385268978       0.7946724466727253
1                         0.5459346325343338       0.7446872405789696       9.999994337956943        1                        1                        0.5459346325343339       0.7446872405789695
0.9124004617673817        0.517850450436818        0.8360043739885661       10.000004029613708       1                        0.912400461767382        0.5178504504368179       0.8360043739885658
1                         0.4987707940149915       0.8335838245495151       9.9999832041525          1                        1                        0.4987707940149917       0.8335838245495153
0.9488171862097914        0.5576061738854333       0.8020272382441984       10.000027616568936       1                        0.948817186209791        0.5576061738854333       0.8020272382441984
0.9202820053683682        0.44432976432497895      0.9318602939993549       9.999991969312317        1                        0.9202820053683677       0.4443297643249789       0.9318602939993545
1                         0.45                     0.913397459621556        9.999960984066115        1                        1                        0.4500000000000001       0.9133974596215562
1                         0.39999999999999997      1                        9.999959345172407        1                        1                        0.39999999999999997      1
0.9271665511151804        0.5125778615354897       0.9043541957697345       9.999975834587977        1                        0.9271665511151806       0.5125778615354898       0.9043541957697344
0.913397459621556         0.45                     1                        10.00000573363487        1                        0.913397459621556        0.45000000000000007      1
0.5543842615101838        0.6689595170624387       0.9345981790176825       10.00001298831335        1                        0.5543842615101835       0.6689595170624387       0.9345981790176828
0.6136387766161201        0.599689997276811        0.936914975780534        10.000022318011052       1                        0.6136387766161203       0.5996899972768114       0.9369149757805341
0.6235997758362907        0.6101379590535337       0.8715131547982164       10.000003946250375       1                        0.6235997758362904       0.6101379590535336       0.8715131547982167
0.6987902089209205        0.6208904120708018       0.8298477743904733       9.999994093583439        1                        0.6987902089209209       0.6208904120708021       0.8298477743904729
0.6141144655363137        0.6725142611008433       0.8691963580353649       10.000027298515958       1                        0.6141144655363139       0.6725142611008436       0.8691963580353647
0.7402302616946369        0.7114133341567036       0.7622801879057757       10.0000064506777         1                        0.7402302616946368       0.7114133341567038       0.7622801879057757
0.8074936644590858        0.4953076474297688       0.9437999279823331       9.99997500824691         1                        0.8074936644590854       0.4953076474297688       0.9437999279823331
0.8807845766195838        0.5087545323595787       0.9521770978848673       10.000012067223476       1                        0.8807845766195838       0.5087545323595786       0.9521770978848674
0.834402602123987         0.5049312031836677       1                        9.99996451620551         1                        0.834402602123987        0.5049312031836677       1
0.7712347393889601        0.5882452970303135       0.8275102507018445       9.99999786767694         1                        0.77123473938896         0.5882452970303137       0.827510250701845
0.7292230925732611        0.5977630554687376       0.8712170689485406       10.000019469412004       1                        0.7292230925732608       0.5977630554687376       0.8712170689485406
0.8443326815997497        0.5751030113650479       0.9173598243769098       9.999993351555801        1                        0.8443326815997498       0.5751030113650479       0.9173598243769095
0.6872114457575621        0.6072808139071618       0.9149238871952367       9.999954336031966        1                        0.6872114457575621       0.6072808139071616       0.9149238871952364
0.7840551531849183        0.5869462280699289       0.9087148178894742       10.000002100899652       1                        0.7840551531849181       0.5869462280699286       0.9087148178894747
0.7510967224384839        0.5535483376596342       1                        10.000005850241555       1                        0.7510967224384838       0.5535483376596343       1
0.675632682594204         0.5936712157435218       1                        9.99997879122014         1                        0.6756326825942037       0.5936712157435216       1
0.838076321315568         0.6445391692302996       0.8442374077220709       10.000004847231962       1                        0.8380763213155685       0.6445391692302994       0.8442374077220703
0.7449084446962172        0.6620500857978489       0.8256743885290785       10.000051676740878       1                        0.7449084446962172       0.6620500857978489       0.825674388529079
0.7474801059522236        1                        0.5519436445566358       10.000074171849432       1                        0.7474801059522238       1                        0.5519436445566358
0.8046934029195514        0.9512286419436085       0.5621817299382209       10.000000903543587       1                        0.804693402919551        0.9512286419436082       0.5621817299382209
0.611410991398067         0.9346930452938057       0.6383619697047006       10.00005885314958        1                        0.611410991398067        0.9346930452938055       0.6383619697047004
0.6713028936782527        0.9276224392218236       0.6291547512491564       10.000023465607775       1                        0.6713028936782526       0.9276224392218235       0.6291547512491568
0.6548596290787724        1                        0.5957168089797223       10.000092165480151       1                        0.6548596290787724       1                        0.5957168089797225
0.8016592457767769        0.903388145518986        0.5984701894026526       10.000005568633728       1                        0.8016592457767767       0.9033881455189858       0.5984701894026526
0.7364810697275147        0.9155052923704048       0.6138124703259046       10.000011896878075       1                        0.7364810697275144       0.9155052923704048       0.6138124703259042
0.49269046937973027       0.9046313605571731       0.7832102697874411       9.999983677530752        1                        0.49269046937973066      0.9046313605571726       0.7832102697874413
0.5284930298242899        0.8287783527148309       0.834378345960781        10.000004263221474       1                        0.5284930298242899       0.8287783527148312       0.8343783459607806
0.5426726224230983        0.855787003220453        0.7740986940953436       10.000026004638412       1                        0.5426726224230981       0.8557870032204528       0.7740986940953435
0.4408400262255071        0.8719082586955091       0.8382199401868771       10.000013387828066       1                        0.44084002622550694      0.871908258695509        0.838219940186877
0.4537301350928478        0.934553796276672        0.863516011571235        10.00001869252022        1                        0.4537301350928479       0.9345537962766719       0.8635160115712351
0.49573063169736076       0.869107592553344        0.8916051348937206       10.000005691336074       1                        0.4957306316973609       0.8691075925533444       0.8916051348937206
0.5994246503165485        1                        0.6749726428938859       10.000042513057847       1                        0.5994246503165483       1                        0.6749726428938859
0.621888853827467         0.9249232449059779       0.7020490859566048       10.000037513770792       1                        0.6218888538274671       0.9249232449059779       0.7020490859566046
0.6443530573383855        0.8498464898119558       0.7291255290193236       10.000055802334908       1                        0.6443530573383854       0.8498464898119558       0.7291255290193239
0.6545149577487976        0.7616248285638104       0.7900612809546271       10.000059918798769       1                        0.654514957748798        0.7616248285638106       0.7900612809546271
0.7111737782501786        0.773265966153577        0.7648508063257752       10.000015747957434       1                        0.711173778250178        0.773265966153577        0.7648508063257752
0.6343147116425557        0.7170695448323269       0.829628819494996        10.000058729617153       1                        0.6343147116425558       0.7170695448323271       0.829628819494996
0.7172247094508669        0.7185525973199652       0.8346612561119675       10.000043322040007       1                        0.7172247094508672       0.718552597319965        0.8346612561119676
0.5941924670959725        0.651618337547398        1                        10.00003102038137        1                        0.5941924670959724       0.651618337547398        1
0.598205831259293         0.8910803676646534       0.7772420339961432       10.000021785248121       1                        0.5982058312592927       0.8910803676646532       0.7772420339961434
0.6197484511373726        0.8235566775037092       0.7968441467644928       10.00002083917714        1                        0.6197484511373725       0.8235566775037095       0.7968441467644927
0.5827087278825227        0.8644400404185588       0.8251946641932126       10.000062137662145       1                        0.5827087278825226       0.8644400404185592       0.8251946641932123
0.5747640532232717        0.7331131911289507       0.8995804717636722       10.000011171166431       1                        0.5747640532232715       0.7331131911289505       0.8995804717636726
0.5951438449363596        0.7972668651954626       0.8645627645096619       10.000029212464876       1                        0.5951438449363594       0.7972668651954627       0.8645627645096616
0.6247515175769668        0.7094852926161427       0.9345981790176825       10.000017204681843       1                        0.6247515175769666       0.7094852926161423       0.9345981790176824
0.6321525137143942        0.7540841499855162       0.8716142977292644       10.000025127496523       1                        0.6321525137143944       0.7540841499855162       0.8716142977292644
0.5469573194756755        0.8154253448724887       0.9322813822548309       9.99993789531517         1                        0.5469573194756753       0.8154253448724884       0.932281382254831
0.5459346325343338        0.7446872405789695       1                        10.00001962113529        1                        0.5459346325343339       0.7446872405789693       1
0.6049168636445339        0.943968089445574        0.7569438491072931       10.00004774444355        1                        0.6049168636445339       0.9439680894455743       0.7569438491072928
0.5574310214012941        1                        0.753496670772363        10.000012790301016       1                        0.5574310214012942       1                        0.753496670772363
0.5515500130144835        0.9526617016667042       0.8035209261971478       10.000025200370619       1                        0.5515500130144838       0.9526617016667037       0.803520926197148
0.5058373300353063        1                        0.8355347104588206       10.000028039267473       1                        0.5058373300353062       1                        0.8355347104588202
0.5837808860164904        0.8578298786878242       0.8941785132470761       9.999983986344132        1                        0.5837808860164906       0.8578298786878239       0.8941785132470766
0.4987707940149913        0.8335838245495149       1                        9.999967151652339        1                        0.49877079401499125      0.8335838245495149       1
0.5228653158486803        0.89125252608745         0.9458025674468603       10.000010030655387       1                        0.5228653158486801       0.8912525260874499       0.9458025674468605
0.4518650675464239        0.923975627949114        0.9317580057856175       10.00002058005808        1                        0.45186506754642386      0.923975627949114        0.9317580057856175
0.5228653158486803        0.934553796276672        0.9025012972576383       9.99998044220037         1                        0.5228653158486802       0.9345537962766721       0.9025012972576383
0.45                      0.913397459621556        1                        10.00004621852314        1                        0.4500000000000001       0.9133974596215563       1
0.45                      1                        0.913397459621556        10.000020776541309       1                        0.4500000000000001       1                        0.9133974596215562
0.4                       1                        1                        9.999981575388004        1                        0.39999999999999997      1                        1
0.7497326723185316        0.8644273294902024       0.6718441106085219       9.999972312692845        1                        0.7497326723185315       0.8644273294902025       0.6718441106085217
0.6809062947133726        0.9177448784436473       0.6896966466696812       9.999992882693018        1                        0.6809062947133724       0.9177448784436473       0.6896966466696811
0.7399237355992783        0.9105665119813167       0.6773442073827577       10.000065177980057       1                        0.7399237355992784       0.910566511981317        0.6773442073827577
0.8361516470024464        1                        0.5946467381966528       10.000054884838162       1                        0.8361516470024463       1                        0.5946467381966529
0.8839245124897921        0.9524018096695529       0.5897224119539632       9.999982250665512        1                        0.8839245124897918       0.9524018096695529       0.589722411953963
0.913397459621556         1                        0.5499999999999998       10.00000902783576        1                        0.9133974596215562       1                        0.5499999999999998
1.0000000000000002        1.0000000000000002       0.49999999999999994      10.000056539337898       1                        1.0000000000000002       1.0000000000000002       0.49999999999999994
1                         0.913397459621556        0.5499999999999998       10.000034739787441       1                        1                        0.9133974596215563       0.5499999999999998
0.9316973779771378        0.9048036193391058       0.5847980857112738       10.000001090445599       1                        0.9316973779771376       0.9048036193391058       0.5847980857112738
0.7330660921401345        0.8468389526832423       0.7464231975067886       10.000007745004122       1                        0.7330660921401345       0.8468389526832424       0.7464231975067886
0.7664764525960311        0.8085486908540529       0.7642858361600144       10.000018663158851       1                        0.7664764525960309       0.808548690854053        0.7642858361600147
0.8196964925629833        0.7129858519761061       0.7892348431541587       10.000012842422029       1                        0.819696492562983        0.7129858519761059       0.7892348431541586
0.8117191863593303        0.8736097805367575       0.6810955276984532       10.000027419362771       1                        0.8117191863593299       0.8736097805367572       0.681095527698453
0.865089467637362         0.9368048902683788       0.6649834799507549       10.000082763322904       1                        0.8650894676373623       0.9368048902683789       0.6649834799507547
0.8630270073954815        0.7865753727190514       0.6903094523358085       9.999993047677592        1                        0.8630270073954812       0.786575372719052        0.6903094523358082
0.9385769570187501        0.7097135617383948       0.6433380743154854       10.000005803500489       1                        0.93857695701875         0.7097135617383951       0.6433380743154854
0.8997371400637779        0.7287604919309459       0.664774074598161        10.000017285393147       1                        0.8997371400637776       0.7287604919309457       0.6647740745981607
0.8984905056125131        0.8757118210758982       0.6313894808086266       9.999987965058576        1                        0.8984905056125133       0.8757118210758984       0.6313894808086267
0.9315135036977408        0.809043641585038        0.6458624798436751       10.000024898428592       1                        0.9315135036977406       0.8090436415850383       0.6458624798436751
1                         0.8315119104510246       0.6014155073515416       10.000032570789289       1                        1                        0.8315119104510243       0.6014155073515416
0.8180936757423396        0.7836676023604511       0.7457246962777421       10.000018525477747       1                        0.8180936757423396       0.7836676023604509       0.7457246962777421
1                         0.7517788241464556       0.6493859592478229       10.000042177462486       1                        1                        0.7517788241464557       0.6493859592478229
1                         0.6782391630248396       0.6770788983329692       10.000037751900322       1                        1                        0.6782391630248396       0.6770788983329691
0.9223203660900556        0.7163330234099418       0.7199508988983204       9.99998638930006         1                        0.9223203660900553       0.7163330234099415       0.7199508988983205
0.8616177373846179        0.7468282782312737       0.7753316830297415       10.000018764631225       1                        0.8616177373846174       0.7468282782312735       0.7753316830297411
0.8865956912550457        0.7091745631523828       0.8210092265900596       9.999960797247295        1                        0.8865956912550458       0.7091745631523826       0.8210092265900593
0.919038160657784         0.6399638694239599       0.7953468659267566       9.999976757150112        1                        0.9190381606577843       0.63996386942396         0.7953468659267565
1                         0.6353885696176201       0.7464563241314421       10.000015484036629       1                        1                        0.63538856961762         0.746456324131442
0.919038160657784         0.5972695846151497       0.8788174336718136       9.999998821428495        1                        0.9190381606577843       0.5972695846151498       0.8788174336718131
0.9115736451254735        0.6715208480734918       0.8666867701503776       9.999987430049817        1                        0.9115736451254731       0.6715208480734917       0.8666867701503772
1                         0.5920893084327203       0.8363999242809993       9.999985525247158        1                        1                        0.5920893084327205       0.8363999242809991
0.9162178101396701        0.5736347923075747       0.9394087168359069       10.000008780383013       1                        0.9162178101396704       0.5736347923075745       0.9394087168359065
1                         0.5499999999999998       0.9133974596215564       9.99993230120741         1                        1                        0.5499999999999998       0.9133974596215565
1.0000000000000002        0.49999999999999994      1.0000000000000002       9.99996715907343         1                        1.0000000000000002       0.49999999999999994      1.0000000000000002
0.913397459621556         0.5499999999999998       1                        9.999939215084334        1                        0.913397459621556        0.5499999999999998       1
0.656266088568633         0.6582225678512955       0.9251562335937358       10.000021901552122       1                        0.6562660885686333       0.6582225678512953       0.9251562335937358
0.6738336174792227        0.7218545343746532       0.9063461810518681       10.000041368244885       1                        0.673833617479223        0.7218545343746533       0.9063461810518683
0.7172890090817965        0.6738020595289002       0.891081280229113        10.000014601333497       1                        0.7172890090817963       0.6738020595288998       0.8910812802291127
0.7839381034746736        0.7528433524887007       0.8227334828800513       9.999959212643175        1                        0.7839381034746736       0.7528433524887004       0.8227334828800513
0.7341816317142137        0.8074218046122256       0.8233556196614511       9.999992936616746        1                        0.7341816317142135       0.8074218046122256       0.823355619661451
0.8315119104510246        0.6014155073515416       1                        9.999961312172982        1                        0.8315119104510242       0.6014155073515416       1
0.7838090006631376        0.6514006482603613       0.9100415828373578       10.00001966702097        1                        0.7838090006631372       0.6514006482603613       0.9100415828373583
0.8608710360468834        0.6366335495330487       0.9197392641189726       9.999979592803182        1                        0.8608710360468838       0.6366335495330486       0.9197392641189726
0.7539252887132613        0.7391460425023911       0.8823142054248532       10.00002554218873        1                        0.7539252887132615       0.7391460425023909       0.8823142054248535
0.7517788241464554        0.649385959247823        1                        10.00000109154479        1                        0.7517788241464556       0.649385959247823        1
0.6782391630248396        0.6770788983329692       1                        10.00000288145268        1                        0.6782391630248396       0.6770788983329691       1
0.8250056846499432        0.7101442566783135       0.8778020745810483       9.999976644128544        1                        0.8250056846499435       0.7101442566783136       0.8778020745810481
0.748069293705481         1                        0.6377938543347744       10.000009720029102       1                        0.7480692937054809       1                        0.6377938543347743
0.6782821873676698        1                        0.6794735429010313       10.000042859137116       1                        0.6782821873676698       1                        0.6794735429010311
0.8025066016183202        0.9236857011248477       0.6711638436667563       10.000002410210683       1                        0.8025066016183204       0.9236857011248475       0.6711638436667561
0.5456690046276728        0.9053234033334083       0.8535451816219324       10.000007328460773       1                        0.5456690046276728       0.9053234033334084       0.8535451816219323
0.6496443235936613        1                        0.7508812729753354       10.000012105309121       1                        0.6496443235936614       1                        0.7508812729753354
0.691355207866898         0.9234194763416211       0.748652235241062        10.000007761932546       1                        0.6913552078668982       0.9234194763416211       0.7486522352410615
0.6901805859456827        0.8727361926404869       0.7970916922098181       10.000046536954898       1                        0.6901805859456828       0.872736192640487        0.7970916922098182
0.648469701672446         0.9493167162988656       0.7993207299440914       10.00004862496355        1                        0.6484697016724462       0.9493167162988654       0.7993207299440912
0.6618797695088703        0.8289324957716075       0.8525422360062337       10.000019620035967       1                        0.6618797695088702       0.8289324957716071       0.8525422360062331
0.6989914523898472        0.7742568762049855       0.8707690689264022       10.000057058916099       1                        0.6989914523898473       0.7742568762049856       0.8707690689264024
0.6353885696176199        0.746456324131442        1                        9.999977421096988        1                        0.6353885696176198       0.746456324131442        1
0.6305054914803224        0.9008437949635635       0.8491988982034445       9.999974070950401        1                        0.6305054914803223       0.9008437949635635       0.8491988982034444
0.7089241127732565        0.8754242110782333       0.8619828472116033       10.00003605352904        1                        0.7089241127732566       0.8754242110782331       0.8619828472116033
0.6527545249298715        0.798288227231289        0.9295343008055754       10.000024161170506       1                        0.6527545249298717       0.7982882272312891       0.9295343008055748
0.5920893084327205        0.8363999242809993       1                        9.999999817264559        1                        0.5920893084327206       0.836399924280999        1
0.6468448650426233        0.8844838867158445       0.9158706147373199       9.999961566145211        1                        0.6468448650426234       0.8844838867158448       0.91587061473732
0.6012533572463474        1                        0.8319006052856173       9.999976287938022        1                        0.6012533572463477       1                        0.8319006052856175
0.5499999999999999        1                        0.913397459621556        10.000001221682774       1                        0.55                     1                        0.9133974596215562
0.5963923652817895        0.9112388281428149       0.9270575001291604       10.000038241101949       1                        0.5963923652817897       0.911238828142815        0.9270575001291603
0.5499999999999999        0.913397459621556        1                        10.000079014601623       1                        0.5499999999999999       0.9133974596215562       1
0.5                       1                        1                        9.999990098793601        1                        0.5                      1                        1
0.7593351533174034        0.9301121833049999       0.7371660365751654       10.000054481457541       1                        0.7593351533174038       0.9301121833049992       0.7371660365751656
0.8273150987679088        0.9368048902683788       0.725679837909269        10.00000568476584        1                        0.8273150987679084       0.936804890268379        0.7256798379092687
0.8396547285774979        1                        0.6905020561894597       10.000010717337519       1                        0.8396547285774981       1                        0.6905020561894597
0.932544733818681         0.9251011749449674       0.6574917399753775       9.999987444716036        1                        0.9325447338186807       0.925101174944967        0.6574917399753774
0.9184597489153938        1                        0.6488714322030568       10.00004650156358        1                        0.918459748915394        1                        0.6488714322030569
1                         1                        0.5999999999999998       9.999988259088957        1                        1                        1                        0.5999999999999998
1                         0.913397459621556        0.65                     10.000007056562565       1                        1                        0.913397459621556        0.6500000000000001
0.8764701565684543        0.8225216520141786       0.7400744303072575       9.99997306092088         1                        0.8764701565684541       0.8225216520141783       0.7400744303072576
0.8217791269418836        0.8438314155545289       0.7637208659942538       10.000056454110764       1                        0.8217791269418838       0.8438314155545291       0.7637208659942539
0.7728334252147663        0.8645745356141127       0.7905360931499319       10.000066987249012       1                        0.7728334252147665       0.8645745356141127       0.7905360931499318
0.757189485178249         0.8415776430708742       0.8818604329971269       10.000026916311969       1                        0.7571894851782486       0.841577643070874        0.8818604329971268
0.9144511403126058        0.9393072187940212       0.7261183965427204       10.00004037796197        1                        0.914451140312606        0.9393072187940209       0.7261183965427201
0.7982694308820357        0.8175767355168418       0.8286912358365631       10.000006564714267       1                        0.7982694308820357       0.8175767355168414       0.8286912358365631
0.8440236165339183        0.7493077320102672       0.8386447947544965       10.000031964529622       1                        0.8440236165339186       0.7493077320102673       0.8386447947544968
0.9108895634709417        0.8786144375880425       0.7068604329971268       10.000013805333264       1                        0.9108895634709419       0.8786144375880423       0.7068604329971265
0.9311611861950249        0.8012118884738282       0.7164279946202614       9.999975867210095        1                        0.9311611861950245       0.8012118884738285       0.7164279946202613
1                         0.8335130925660522       0.6997977035931214       10.000035369332775       1                        1                        0.8335130925660524       0.6997977035931217
0.8775324495787894        0.8142576886838342       0.8011314904612994       10.000040585802887       1                        0.8775324495787894       0.8142576886838345       0.8011314904612996
0.9308088686923089        0.7933801353626184       0.7869935093968479       9.999990327237592        1                        0.9308088686923087       0.7933801353626182       0.7869935093968476
1                         0.745003215710826        0.7514269823524992       9.999971574464338        1                        1                        0.7450032157108258       0.751426982352499
0.9520545647965815        0.7453876636213299       0.8029915444907204       10.000022678728493       1                        0.9520545647965817       0.7453876636213297       0.8029915444907201
0.8774093904940171        0.6981640877010494       0.9221187038610354       9.999973853841754        1                        0.8774093904940172       0.6981640877010497       0.922118703861035
0.904109129593163         0.7457721115318339       0.8545561066289417       10.000017164207536       1                        0.904109129593163        0.745772111531834        0.8545561066289411
1                         0.6925998434146143       0.8393238705872195       9.999996082519491        1                        1                        0.6925998434146142       0.8393238705872194
0.9124855523735148        0.6607604240367458       0.9333433850751889       10.000016369680983       1                        0.9124855523735146       0.6607604240367456       0.9333433850751888
0.9387046952470086        0.7216734807134128       0.9202227908445246       10.00000405481968        1                        0.9387046952470083       0.721673480713413        0.9202227908445245
1                         0.6491902636413945       0.9183474340813769       9.999996275171691        1                        1                        0.6491902636413946       0.9183474340813765
0.913397459621556         0.6499999999999999       1                        10.00000473668968        1                        0.913397459621556        0.65                     1
1                         0.5999999999999998       1                        10.000003752925783       1                        1                        0.5999999999999998       1
0.7400364740713998        0.7250447558802522       0.9461594031241527       9.999995281969976        1                        0.7400364740713993       0.7250447558802516       0.9461594031241526
0.8015289567357465        0.7793307398671396       0.8910048805839031       10.000005850388469       1                        0.8015289567357465       0.7793307398671395       0.8910048805839031
0.8335130925660523        0.6997977035931214       1                        9.999998035716036        1                        0.8335130925660524       0.6997977035931217       1
0.8279708123671491        0.72511287698105         0.9339314525564305       10.000025971459312       1                        0.8279708123671488       0.7251128769810502       0.9339314525564306
0.7483985097514275        0.8052908920830517       0.9359455774867693       10.00002922412652        1                        0.7483985097514272       0.8052908920830518       0.9359455774867697
0.7450032157108256        0.7514269823524992       1                        10.000017775495671       1                        0.7450032157108256       0.7514269823524992       1
0.8740972700294892        0.7868769152996952       0.9227451428178666       9.999985906639218        1                        0.874097270029489        0.7868769152996952       0.9227451428178667
0.7509749163858663        1                        0.745529478833306        10.000054072487107       1                        0.7509749163858662       1                        0.7455294788333061
0.7540822007820577        0.9207888215354372       0.8136949559152165       10.000020907844133       1                        0.7540822007820579       0.9207888215354375       0.8136949559152168
0.6436430480155612        0.9497631887203108       0.8816826619441647       10.000004098815584       1                        0.6436430480155608       0.9497631887203112       0.8816826619441648
0.6994463145661018        1                        0.8309576093160331       10.000028625584951       1                        0.6994463145661018       1                        0.8309576093160332
0.7008442985154207        0.9350527689171514       0.8478839596355102       10.000030801403689       1                        0.7008442985154205       0.9350527689171516       0.8478839596355102
0.755546605701144         0.8773410131792422       0.9198852076183439       10.000004764850098       1                        0.7555466057011438       0.8773410131792425       0.9198852076183438
0.7056913354003499        0.8559890496159541       0.9285478140187067       10.000061912848539       1                        0.7056913354003496       0.8559890496159537       0.9285478140187067
0.6925998434146143        0.8393238705872196       1                        9.999997976357871        1                        0.6925998434146142       0.8393238705872197       1
0.697159824623866         0.9153917327274212       0.9233434850478106       10.000025307281584       1                        0.6971598246238657       0.9153917327274214       0.9233434850478104
0.6491902636413944        0.9183474340813768       1                        9.999979902749754        1                        0.6491902636413942       0.9183474340813764       1
0.6490101307552975        0.9453507347252113       0.9396320388304802       10.00000019827761        1                        0.6490101307552975       0.9453507347252116       0.9396320388304799
0.6499999999999999        1                        0.913397459621556        10.000040420109517       1                        0.6499999999999999       1                        0.9133974596215559
0.6                       1                        1                        10.000042487810477       1                        0.6                      1                        1
0.814768295594603         0.933095823300817        0.8002511217531206       9.999999246269534        1                        0.8147682955946034       0.9330958233008172       0.8002511217531206
0.8754543904071483        0.9454028250661969       0.7868072875910248       10.000043573868753       1                        0.875454390407148        0.9454028250661968       0.7868072875910246
0.8429110111764871        1                        0.770264148120085        10.000025163731026       1                        0.842911011176487        1                        0.770264148120085
1                         0.9167424596724663       0.7517890061717992       10.000056883213164       1                        1                        0.9167424596724664       0.7517890061717994
0.9180127171542698        1                        0.7453763600883141       10.000040774258885       1                        0.9180127171542695       1                        0.7453763600883141
1                         1                        0.7                      10.000075000009414       1                        1                        1                        0.7000000000000001
0.9079977696378094        0.8908056501323938       0.8033504270619646       10.00005577179799        1                        0.9079977696378094       0.8908056501323934       0.8033504270619646
0.8126007582893979        0.882310118544983        0.8346489887930749       10.000031860857424       1                        0.8126007582893978       0.8823101185449825       0.8346489887930749
0.8148542346637846        0.8462018711456119       0.915890321780264        10.000032950345599       1                        0.8148542346637843       0.8462018711456119       0.915890321780264
0.9539988848189047        0.9454028250661969       0.8016752135309823       10.000052478068806       1                        0.9539988848189047       0.9454028250661967       0.8016752135309823
0.8785947425891245        0.8059937253534899       0.8621885506153412       9.999985789045237        1                        0.8785947425891244       0.8059937253534898       0.8621885506153412
1                         0.839931992493963        0.7986553357639542       10.000043804063033       1                        1                        0.8399319924939627       0.7986553357639541
0.9392973712945623        0.8229628589237264       0.8304219431896477       9.999982639784127        1                        0.9392973712945625       0.8229628589237268       0.830421943189648
1                         0.7704098076361054       0.8425166682335554       10.000048759826845       1                        1                        0.7704098076361057       0.8425166682335554
0.9167424596724663        0.7517890061717993       1                        9.999983729031031        1                        0.9167424596724663       0.7517890061717994       1
0.9362594920746601        0.7980044864730629       0.9341235441957074       10.00002082272931        1                        0.9362594920746603       0.798004486473063        0.9341235441957071
1                         0.7451828737257762       0.9183268778280137       10.000051812053554       1                        1                        0.7451828737257761       0.9183268778280136
1                         0.7                      1                        9.999998498064933        1                        1                        0.7000000000000001       1
0.839931992493963         0.7986553357639542       1                        9.999987082246765        1                        0.8399319924939628       0.798655335763954        1
0.7704098076361053        0.8425166682335554       1                        9.999979973749117        1                        0.7704098076361052       0.8425166682335554       1
0.8725189841493202        0.8508260992203496       0.949920210563401        10.000009252820767       1                        0.8725189841493198       0.8508260992203494       0.9499202105634015
0.7989175217036558        1                        0.8389669165443655       10.000040903608372       1                        0.7989175217036558       1                        0.8389669165443654
0.8034223896369123        0.9207888215354372       0.905577111591896        9.999983650057116        1                        0.8034223896369121       0.9207888215354373       0.905577111591896
0.8028352449038393        0.8938886963013037       0.959942603809172        10.000009756563935       1                        0.8028352449038392       0.8938886963013035       0.9599426038091717
0.7511973952305572        1                        0.9164778924977145       10.000018824989088       1                        0.7511973952305572       1                        0.9164778924977147
0.7770163200671982        0.9469443481506519       0.9382102481534432       10.00001304282117        1                        0.7770163200671979       0.9469443481506519       0.9382102481534429
0.7451828737257759        0.9183268778280137       1                        9.999982063186916        1                        0.7451828737257759       0.9183268778280135       1
0.7                       1                        1                        10.00001089396468        1                        0.7000000000000001       1                        1
0.8607499350606633        0.9411550592724915       0.8417809439111863       10.000060177959588       1                        0.8607499350606637       0.9411550592724915       0.841780943911186
1                         0.9276921219638133       0.8505556932241729       10.00003885433559        1                        1                        0.9276921219638136       0.850555693224173
0.9088991118319288        1                        0.8489128990292977       10.000029582398263       1                        0.9088991118319286       1                        0.8489128990292977
0.9525529879023386        0.9514984313383725       0.899920210563401        10.000048445810858       1                        0.9525529879023387       0.9514984313383723       0.899920210563401
1                         1                        0.7999999999999999       10.000063955694127       1                        1                        1                        0.7999999999999999
0.9051059758046771        0.902996862676745        0.8998404211268022       10.000043565161736       1                        0.9051059758046772       0.9029968626767444       0.8998404211268031
1                         0.8501238841065343       0.9104363794233651       9.99999488359925         1                        1                        0.8501238841065342       0.9104363794233649
0.927692121963813         0.850555693224173        1                        10.000011819831899       1                        0.9276921219638131       0.850555693224173        1
1                         0.7999999999999999       1                        10.000017178104828       1                        1                        0.7999999999999999       1
0.8501238841065346        0.9104363794233652       1                        10.000013033100016       1                        0.8501238841065344       0.910436379423365        1
0.8496552940955755        1                        0.9292937901866651       10.000029347648086       1                        0.8496552940955753       1                        0.9292937901866654
0.8000000000000002        1                        1                        10.000030949163293       1                        0.8                      1                        1
0.9316172090202298        1                        0.9374922916382632       10.000030210485034       1                        0.9316172090202298       1                        0.937492291638263
1                         0.9379433637675711       0.9352795854222424       10.000025232289838       1                        1                        0.9379433637675713       0.9352795854222424
0.9379433637675711        0.9352795854222427       1                        10.000044395877502       1                        0.9379433637675713       0.9352795854222429       1
1                         1                        0.8999999999999999       10.0000425223713         1                        1                        1                        0.9
1                         0.8999999999999999       1                        9.999997137916175        1                        1                        0.9                      1
0.9                       0.9999999999999999       0.9999999999999999       10.000027539830574       1                        0.9                      0.9999999999999999       0.9999999999999999
1                         1                        1                        10.000007743949814       1                        1                        1                        1
